 Set GAUSS_PDEF to "12".
 Entering Gaussian System, Link 0=g16
 Initial command:
 /leonardo/prod/opt/applications/g16/c02/binary/g16/l1.exe "/leonardo_scratch/large/userexternal/morza000/g16_39399960/Gau-1388159.inp" -scrdir="/leonardo_scratch/large/userexternal/morza000/g16_39399960/"
 Default is to use a total of  12 processors:
                               12 via shared-memory
                                1 via Linda
 Entering Link 1 = /leonardo/prod/opt/applications/g16/c02/binary/g16/l1.exe PID=   1388160.
  
 Copyright (c) 1988-2021, Gaussian, Inc.  All Rights Reserved.
  
 This is part of the Gaussian(R) 16 program.  It is based on
 the Gaussian(R) 09 system (copyright 2009, Gaussian, Inc.),
 the Gaussian(R) 03 system (copyright 2003, Gaussian, Inc.),
 the Gaussian(R) 98 system (copyright 1998, Gaussian, Inc.),
 the Gaussian(R) 94 system (copyright 1995, Gaussian, Inc.),
 the Gaussian 92(TM) system (copyright 1992, Gaussian, Inc.),
 the Gaussian 90(TM) system (copyright 1990, Gaussian, Inc.),
 the Gaussian 88(TM) system (copyright 1988, Gaussian, Inc.),
 the Gaussian 86(TM) system (copyright 1986, Carnegie Mellon
 University), and the Gaussian 82(TM) system (copyright 1983,
 Carnegie Mellon University). Gaussian is a federally registered
 trademark of Gaussian, Inc.
  
 This software contains proprietary and confidential information,
 including trade secrets, belonging to Gaussian, Inc.
  
 This software is provided under written license and may be
 used, copied, transmitted, or stored only in accord with that
 written license.
  
 The following legend is applicable only to US Government
 contracts under FAR:
  
                    RESTRICTED RIGHTS LEGEND
  
 Use, reproduction and disclosure by the US Government is
 subject to restrictions as set forth in subparagraphs (a)
 and (c) of the Commercial Computer Software - Restricted
 Rights clause in FAR 52.227-19.
  
 Gaussian, Inc.
 340 Quinnipiac St., Bldg. 40, Wallingford CT 06492
  
  
 ---------------------------------------------------------------
 Warning -- This program may not be used in any manner that
 competes with the business of Gaussian, Inc. or will provide
 assistance to any competitor of Gaussian, Inc.  The licensee
 of this program is prohibited from giving any competitor of
 Gaussian, Inc. access to this program.  By using this program,
 the user acknowledges that Gaussian, Inc. is engaged in the
 business of creating and licensing software in the field of
 computational chemistry and represents and warrants to the
 licensee that it is not a competitor of Gaussian, Inc. and that
 it will not use this program in any manner prohibited above.
 ---------------------------------------------------------------
  

 Cite this work as:
 Gaussian 16, Revision C.02,
 M. J. Frisch, G. W. Trucks, H. B. Schlegel, G. E. Scuseria, 
 M. A. Robb, J. R. Cheeseman, G. Scalmani, V. Barone, 
 G. A. Petersson, H. Nakatsuji, X. Li, M. Caricato, A. V. Marenich, 
 J. Bloino, B. G. Janesko, R. Gomperts, B. Mennucci, H. P. Hratchian, 
 J. V. Ortiz, A. F. Izmaylov, J. L. Sonnenberg, D. Williams-Young, 
 F. Ding, F. Lipparini, F. Egidi, J. Goings, B. Peng, A. Petrone, 
 T. Henderson, D. Ranasinghe, V. G. Zakrzewski, J. Gao, N. Rega, 
 G. Zheng, W. Liang, M. Hada, M. Ehara, K. Toyota, R. Fukuda, 
 J. Hasegawa, M. Ishida, T. Nakajima, Y. Honda, O. Kitao, H. Nakai, 
 T. Vreven, K. Throssell, J. A. Montgomery, Jr., J. E. Peralta, 
 F. Ogliaro, M. J. Bearpark, J. J. Heyd, E. N. Brothers, K. N. Kudin, 
 V. N. Staroverov, T. A. Keith, R. Kobayashi, J. Normand, 
 K. Raghavachari, A. P. Rendell, J. C. Burant, S. S. Iyengar, 
 J. Tomasi, M. Cossi, J. M. Millam, M. Klene, C. Adamo, R. Cammi, 
 J. W. Ochterski, R. L. Martin, K. Morokuma, O. Farkas, 
 J. B. Foresman, and D. J. Fox, Gaussian, Inc., Wallingford CT, 2019.
 
 ******************************************
 Gaussian 16:  ES64L-G16RevC.02  7-Dec-2021
                 8-Apr-2026 
 ******************************************
 %chk=file.chk
 %nproc=12
 Will use up to   12 processors via shared memory.
 %mem=12GB
 --------------------------------------
 #p opt=addredundant B3LYP/6-31G(2df,p)
 --------------------------------------
 1/18=120,19=15,26=3,38=1/1,3;
 2/9=110,12=2,17=6,18=5,40=1/2;
 3/5=1,6=6,7=104,11=2,25=1,30=1,71=1,74=-5/1,2,3;
 4//1;
 5/5=2,38=5/2;
 6/7=2,8=2,9=2,10=2,28=1/1;
 7//1,2,3,16;
 1/18=20,19=15,26=3/3(2);
 2/9=110/2;
 99//99;
 2/9=110/2;
 3/5=1,6=6,7=104,11=2,25=1,30=1,71=1,74=-5/1,2,3;
 4/5=5,16=3,69=1/1;
 5/5=2,38=5/2;
 7//1,2,3,16;
 1/18=20,19=15,26=3/3(-5);
 2/9=110/2;
 6/7=2,8=2,9=2,10=2,19=2,28=1/1;
 99/9=1/99;
 Leave Link    1 at Wed Apr  8 17:10:43 2026, MaxMem=  1610612736 cpu:               0.1 elap:               0.5
 (Enter /leonardo/prod/opt/applications/g16/c02/binary/g16/l101.exe)
 -------------------
 Title Card Required
 -------------------
 Symbolic Z-matrix:
 Charge =  0 Multiplicity = 1
 F                    -0.79377  -0.45639  -0.94255 
 C                     0.        0.        0. 
 F                    -0.24502   1.27553   0.1994 
 F                    -0.21296  -0.66609   1.11254 
 F                     1.25176  -0.15305  -0.36939 
 
 The following ModRedundant input section has been read:
 
 ITRead=  0  0  0  0  0
 MicOpt= -1 -1 -1 -1 -1
 NAtoms=      5 NQM=        5 NQMF=       0 NMMI=      0 NMMIF=      0
                NMic=       0 NMicF=      0.
                    Isotopes and Nuclear Properties:
 (Nuclear quadrupole moments (NQMom) in fm**2, nuclear magnetic moments (NMagM)
  in nuclear magnetons)

  Atom         1           2           3           4           5
 IAtWgt=          19          12          19          19          19
 AtmWgt=  18.9984032  12.0000000  18.9984032  18.9984032  18.9984032
 NucSpn=           1           0           1           1           1
 AtZEff=  -0.0000000  -0.0000000  -0.0000000  -0.0000000  -0.0000000
 NQMom=    0.0000000   0.0000000   0.0000000   0.0000000   0.0000000
 NMagM=    2.6288670   0.0000000   2.6288670   2.6288670   2.6288670
 AtZNuc=   9.0000000   6.0000000   9.0000000   9.0000000   9.0000000
 Leave Link  101 at Wed Apr  8 17:10:44 2026, MaxMem=  1610612736 cpu:               0.4 elap:               0.5
 (Enter /leonardo/prod/opt/applications/g16/c02/binary/g16/l103.exe)

 GradGradGradGradGradGradGradGradGradGradGradGradGradGradGradGradGradGrad
 Berny optimization.
 Initialization pass.
                           ----------------------------
                           !    Initial Parameters    !
                           ! (Angstroms and Degrees)  !
 --------------------------                            --------------------------
 ! Name  Definition              Value          Derivative Info.                !
 --------------------------------------------------------------------------------
 ! R1    R(1,2)                  1.3141         estimate D2E/DX2                !
 ! R2    R(2,3)                  1.3141         estimate D2E/DX2                !
 ! R3    R(2,4)                  1.3141         estimate D2E/DX2                !
 ! R4    R(2,5)                  1.3141         estimate D2E/DX2                !
 ! A1    A(1,2,3)              109.4712         estimate D2E/DX2                !
 ! A2    A(1,2,4)              109.4712         estimate D2E/DX2                !
 ! A3    A(1,2,5)              109.4712         estimate D2E/DX2                !
 ! A4    A(3,2,4)              109.4712         estimate D2E/DX2                !
 ! A5    A(3,2,5)              109.4712         estimate D2E/DX2                !
 ! A6    A(4,2,5)              109.4712         estimate D2E/DX2                !
 ! D1    D(3,2,5,4)            120.0            estimate D2E/DX2                !
 --------------------------------------------------------------------------------
 Trust Radius=3.00D-01 FncErr=1.00D-07 GrdErr=1.00D-06 EigMax=2.50D+02 EigMin=1.00D-04
 Number of steps in this run=     21 maximum allowed number of steps=    100.
 GradGradGradGradGradGradGradGradGradGradGradGradGradGradGradGradGradGrad

 Leave Link  103 at Wed Apr  8 17:10:45 2026, MaxMem=  1610612736 cpu:               0.0 elap:               0.1
 (Enter /leonardo/prod/opt/applications/g16/c02/binary/g16/l202.exe)
                          Input orientation:                          
 ---------------------------------------------------------------------
 Center     Atomic      Atomic             Coordinates (Angstroms)
 Number     Number       Type             X           Y           Z
 ---------------------------------------------------------------------
      1          9           0       -0.793773   -0.456389   -0.942552
      2          6           0        0.000000    0.000000    0.000000
      3          9           0       -0.245024    1.275528    0.199401
      4          9           0       -0.212961   -0.666087    1.112540
      5          9           0        1.251757   -0.153053   -0.369390
 ---------------------------------------------------------------------
                    Distance matrix (angstroms):
                    1          2          3          4          5
     1  F    0.000000
     2  C    1.314067   0.000000
     3  F    2.145861   1.314066   0.000000
     4  F    2.145861   1.314066   2.145861   0.000000
     5  F    2.145861   1.314066   2.145861   2.145861   0.000000
 Stoichiometry    CF4
 Framework group  TD[O(C),4C3(F)]
 Deg. of freedom     1
 Full point group                 TD      NOp  24
 Largest Abelian subgroup         D2      NOp   4
 Largest concise Abelian subgroup D2      NOp   4
                         Standard orientation:                         
 ---------------------------------------------------------------------
 Center     Atomic      Atomic             Coordinates (Angstroms)
 Number     Number       Type             X           Y           Z
 ---------------------------------------------------------------------
      1          9           0        0.758676    0.758676    0.758676
      2          6           0        0.000000   -0.000000   -0.000000
      3          9           0       -0.758676   -0.758676    0.758676
      4          9           0       -0.758676    0.758676   -0.758676
      5          9           0        0.758676   -0.758676   -0.758676
 ---------------------------------------------------------------------
 Rotational constants (GHZ):           5.7769275           5.7769275           5.7769275
 Leave Link  202 at Wed Apr  8 17:10:45 2026, MaxMem=  1610612736 cpu:               0.1 elap:               0.1
 (Enter /leonardo/prod/opt/applications/g16/c02/binary/g16/l301.exe)
 Standard basis: 6-31G(2df,p) (6D, 7F)
 Ernie: Thresh=  0.10000D-02 Tol=  0.10000D-05 Strict=F.
 There are    41 symmetry adapted cartesian basis functions of A   symmetry.
 There are    38 symmetry adapted cartesian basis functions of B1  symmetry.
 There are    38 symmetry adapted cartesian basis functions of B2  symmetry.
 There are    38 symmetry adapted cartesian basis functions of B3  symmetry.
 There are    38 symmetry adapted basis functions of A   symmetry.
 There are    34 symmetry adapted basis functions of B1  symmetry.
 There are    34 symmetry adapted basis functions of B2  symmetry.
 There are    34 symmetry adapted basis functions of B3  symmetry.
   140 basis functions,   220 primitive gaussians,   155 cartesian basis functions
    21 alpha electrons       21 beta electrons
       nuclear repulsion energy       206.8330413136 Hartrees.
 IExCor=  402 DFT=T Ex+Corr=B3LYP ExCW=0 ScaHFX=  0.200000
 ScaDFX=  0.800000  0.720000  1.000000  0.810000 ScalE2=  1.000000  1.000000
 IRadAn=      5 IRanWt=     -1 IRanGd=            0 ICorTp=0 IEmpDi=  4
 NAtoms=    5 NActive=    5 NUniq=    2 SFac= 4.00D+00 NAtFMM=   60 NAOKFM=F Big=F
 Integral buffers will be    131072 words long.
 Raffenetti 2 integral format.
 Two-electron integral symmetry is turned on.
 Leave Link  301 at Wed Apr  8 17:10:46 2026, MaxMem=  1610612736 cpu:               0.1 elap:               0.1
 (Enter /leonardo/prod/opt/applications/g16/c02/binary/g16/l302.exe)
 NPDir=0 NMtPBC=     1 NCelOv=     1 NCel=       1 NClECP=     1 NCelD=      1
         NCelK=      1 NCelE2=     1 NClLst=     1 CellRange=     0.0.
 One-electron integrals computed using PRISM.
 One-electron integral symmetry used in STVInt
 NBasis=   140 RedAO= T EigKep=  1.69D-03  NBF=    38    34    34    34
 NBsUse=   140 1.00D-06 EigRej= -1.00D+00 NBFU=    38    34    34    34
 Precomputing XC quadrature grid using
 IXCGrd= 4 IRadAn=           5 IRanWt=          -1 IRanGd=           0 AccXCQ= 0.00D+00.
 Generated NRdTot=       0 NPtTot=           0 NUsed=           0 NTot=          32
 NSgBfM=   155   155   155   155   155 MxSgAt=     5 MxSgA2=     5.
 Leave Link  302 at Wed Apr  8 17:10:47 2026, MaxMem=  1610612736 cpu:               1.5 elap:               0.6
 (Enter /leonardo/prod/opt/applications/g16/c02/binary/g16/l303.exe)
 DipDrv:  MaxL=1.
 Leave Link  303 at Wed Apr  8 17:10:47 2026, MaxMem=  1610612736 cpu:               0.1 elap:               0.1
 (Enter /leonardo/prod/opt/applications/g16/c02/binary/g16/l401.exe)
 ExpMin= 1.69D-01 ExpMax= 7.00D+03 ExpMxC= 1.05D+03 IAcc=3 IRadAn=         5 AccDes= 0.00D+00
 Harris functional with IExCor=  402 and IRadAn=       5 diagonalized for initial guess.
 HarFok:  IExCor=  402 AccDes= 0.00D+00 IRadAn=         5 IDoV= 1 UseB2=F ITyADJ=14
 ICtDFT=  3500011 ScaDFX=  1.000000  1.000000  1.000000  1.000000
 FoFCou: FMM=F IPFlag=           0 FMFlag=      100000 FMFlg1=           0
         NFxFlg=           0 DoJE=T BraDBF=F KetDBF=T FulRan=T
         wScrn=  0.000000 ICntrl=       500 IOpCl=  0 I1Cent=   200000004 NGrid=           0
         NMat0=    1 NMatS0=      1 NMatT0=    0 NMatD0=    1 NMtDS0=    0 NMtDT0=    0
 Petite list used in FoFCou.
 Harris En= -437.480556023045    
 JPrj=0 DoOrth=F DoCkMO=F.
 Initial guess orbital symmetries:
       Occupied  (A1) (T2) (T2) (T2) (A1) (A1) (T2) (T2) (T2) (A1)
                 (T2) (T2) (T2) (E) (E) (T2) (T2) (T2) (T1) (T1)
                 (T1)
       Virtual   (A1) (T2) (T2) (T2) (A1) (T2) (T2) (T2) (T2) (T2)
                 (T2) (E) (E) (A1) (T2) (T2) (T2) (T2) (T2) (T2)
                 (E) (E) (T1) (T1) (T1) (T1) (T1) (T1) (E) (E)
                 (T2) (T2) (T2) (A1) (T2) (T2) (T2) (A1) (T1) (T1)
                 (T1) (E) (E) (T2) (T2) (T2) (T2) (T2) (T2) (T1)
                 (T1) (T1) (T2) (T2) (T2) (A1) (T2) (T2) (T2) (T2)
                 (T2) (T2) (A1) (T2) (T2) (T2) (E) (E) (T1) (T1)
                 (T1) (E) (E) (T2) (T2) (T2) (T1) (T1) (T1) (A1)
                 (E) (E) (T2) (T2) (T2) (A1) (A2) (T1) (T1) (T1)
                 (T2) (T2) (T2) (T1) (T1) (T1) (E) (E) (A1) (T2)
                 (T2) (T2) (T2) (T2) (T2) (E) (E) (T2) (T2) (T2)
                 (T1) (T1) (T1) (A1) (T2) (T2) (T2) (A1) (A1)
 The electronic state of the initial guess is 1-A1.
 Leave Link  401 at Wed Apr  8 17:10:48 2026, MaxMem=  1610612736 cpu:               1.6 elap:               0.4
 (Enter /leonardo/prod/opt/applications/g16/c02/binary/g16/l502.exe)
 Keep R1 ints in memory in symmetry-blocked form, NReq=60922220.
 FoFCou: FMM=F IPFlag=           0 FMFlag=           0 FMFlg1=           0
         NFxFlg=           0 DoJE=F BraDBF=F KetDBF=F FulRan=T
         wScrn=  0.000000 ICntrl=       600 IOpCl=  0 I1Cent=           0 NGrid=           0
         NMat0=    1 NMatS0=   9870 NMatT0=    0 NMatD0=    1 NMtDS0=    0 NMtDT0=    0
 Petite list used in FoFCou.
 Closed shell SCF:
 Using DIIS extrapolation, IDIIS=  1040.
 NGot=  1610612736 LenX=  1598353422 LenY=  1598328956
 Requested convergence on RMS density matrix=1.00D-08 within 128 cycles.
 Requested convergence on MAX density matrix=1.00D-06.
 Requested convergence on             energy=1.00D-06.
 No special actions if energy rises.
 Integral accuracy reduced to 1.0D-05 until final iterations.

 Cycle   1  Pass 0  IDiag  1:
 E= -437.416615741545    
 DIIS: error= 3.47D-02 at cycle   1 NSaved=   1.
 NSaved= 1 IEnMin= 1 EnMin= -437.416615741545     IErMin= 1 ErrMin= 3.47D-02
 ErrMax= 3.47D-02  0.00D+00 EMaxC= 1.00D-01 BMatC= 1.44D-01 BMatP= 1.44D-01
 IDIUse=3 WtCom= 6.53D-01 WtEn= 3.47D-01
 Coeff-Com:  0.100D+01
 Coeff-En:   0.100D+01
 Coeff:      0.100D+01
 Gap=     0.535 Goal=   None    Shift=    0.000
 GapD=    0.535 DampG=2.000 DampE=0.500 DampFc=1.0000 IDamp=-1.
 RMSDP=2.94D-03 MaxDP=1.14D-01              OVMax= 1.30D-01

 Cycle   2  Pass 0  IDiag  1:
 E= -437.319346863083     Delta-E=        0.097268878461 Rises=F Damp=F
 DIIS: error= 5.04D-02 at cycle   2 NSaved=   2.
 NSaved= 2 IEnMin= 1 EnMin= -437.416615741545     IErMin= 1 ErrMin= 3.47D-02
 ErrMax= 5.04D-02  0.00D+00 EMaxC= 1.00D-01 BMatC= 3.12D-01 BMatP= 1.44D-01
 IDIUse=2 WtCom= 0.00D+00 WtEn= 1.00D+00
 Coeff-En:   0.661D+00 0.339D+00
 Coeff:      0.661D+00 0.339D+00
 Gap=     0.617 Goal=   None    Shift=    0.000
 RMSDP=1.60D-03 MaxDP=6.82D-02 DE= 9.73D-02 OVMax= 7.07D-02

 Cycle   3  Pass 0  IDiag  1:
 E= -437.498041813663     Delta-E=       -0.178694950580 Rises=F Damp=F
 DIIS: error= 6.88D-03 at cycle   3 NSaved=   3.
 NSaved= 3 IEnMin= 3 EnMin= -437.498041813663     IErMin= 3 ErrMin= 6.88D-03
 ErrMax= 6.88D-03  0.00D+00 EMaxC= 1.00D-01 BMatC= 6.39D-03 BMatP= 1.44D-01
 IDIUse=3 WtCom= 9.31D-01 WtEn= 6.88D-02
 Coeff-Com:  0.397D-01-0.129D+00 0.109D+01
 Coeff-En:   0.000D+00 0.000D+00 0.100D+01
 Coeff:      0.370D-01-0.120D+00 0.108D+01
 Gap=     0.633 Goal=   None    Shift=    0.000
 RMSDP=2.84D-04 MaxDP=9.59D-03 DE=-1.79D-01 OVMax= 1.22D-02

 Cycle   4  Pass 0  IDiag  1:
 E= -437.501741552538     Delta-E=       -0.003699738875 Rises=F Damp=F
 DIIS: error= 6.79D-04 at cycle   4 NSaved=   4.
 NSaved= 4 IEnMin= 4 EnMin= -437.501741552538     IErMin= 4 ErrMin= 6.79D-04
 ErrMax= 6.79D-04  0.00D+00 EMaxC= 1.00D-01 BMatC= 7.11D-05 BMatP= 6.39D-03
 IDIUse=3 WtCom= 9.93D-01 WtEn= 6.79D-03
 Coeff-Com:  0.741D-02-0.329D-01 0.330D+00 0.695D+00
 Coeff-En:   0.000D+00 0.000D+00 0.000D+00 0.100D+01
 Coeff:      0.736D-02-0.327D-01 0.328D+00 0.697D+00
 Gap=     0.633 Goal=   None    Shift=    0.000
 RMSDP=3.25D-05 MaxDP=7.69D-04 DE=-3.70D-03 OVMax= 7.86D-04

 Cycle   5  Pass 0  IDiag  1:
 E= -437.501778068564     Delta-E=       -0.000036516026 Rises=F Damp=F
 DIIS: error= 8.39D-05 at cycle   5 NSaved=   5.
 NSaved= 5 IEnMin= 5 EnMin= -437.501778068564     IErMin= 5 ErrMin= 8.39D-05
 ErrMax= 8.39D-05  0.00D+00 EMaxC= 1.00D-01 BMatC= 9.20D-07 BMatP= 7.11D-05
 IDIUse=1 WtCom= 1.00D+00 WtEn= 0.00D+00
 Coeff-Com:  0.117D-03-0.692D-02 0.733D-01 0.252D+00 0.682D+00
 Coeff:      0.117D-03-0.692D-02 0.733D-01 0.252D+00 0.682D+00
 Gap=     0.633 Goal=   None    Shift=    0.000
 RMSDP=4.28D-06 MaxDP=5.67D-05 DE=-3.65D-05 OVMax= 1.03D-04

 Initial convergence to 1.0D-05 achieved.  Increase integral accuracy.
 Cycle   6  Pass 1  IDiag  1:
 E= -437.501763895856     Delta-E=        0.000014172708 Rises=F Damp=F
 DIIS: error= 6.81D-06 at cycle   1 NSaved=   1.
 NSaved= 1 IEnMin= 1 EnMin= -437.501763895856     IErMin= 1 ErrMin= 6.81D-06
 ErrMax= 6.81D-06  0.00D+00 EMaxC= 1.00D-01 BMatC= 1.19D-08 BMatP= 1.19D-08
 IDIUse=1 WtCom= 1.00D+00 WtEn= 0.00D+00
 Coeff-Com:  0.100D+01
 Coeff:      0.100D+01
 Gap=     0.632 Goal=   None    Shift=    0.000
 RMSDP=4.28D-06 MaxDP=5.67D-05 DE= 1.42D-05 OVMax= 2.17D-05

 Cycle   7  Pass 1  IDiag  1:
 E= -437.501763897385     Delta-E=       -0.000000001529 Rises=F Damp=F
 DIIS: error= 8.89D-06 at cycle   2 NSaved=   2.
 NSaved= 2 IEnMin= 2 EnMin= -437.501763897385     IErMin= 1 ErrMin= 6.81D-06
 ErrMax= 8.89D-06  0.00D+00 EMaxC= 1.00D-01 BMatC= 8.46D-09 BMatP= 1.19D-08
 IDIUse=1 WtCom= 1.00D+00 WtEn= 0.00D+00
 Coeff-Com:  0.448D+00 0.552D+00
 Coeff:      0.448D+00 0.552D+00
 Gap=     0.633 Goal=   None    Shift=    0.000
 RMSDP=4.15D-07 MaxDP=1.56D-05 DE=-1.53D-09 OVMax= 1.79D-05

 Cycle   8  Pass 1  IDiag  1:
 E= -437.501763901879     Delta-E=       -0.000000004494 Rises=F Damp=F
 DIIS: error= 2.74D-06 at cycle   3 NSaved=   3.
 NSaved= 3 IEnMin= 3 EnMin= -437.501763901879     IErMin= 3 ErrMin= 2.74D-06
 ErrMax= 2.74D-06  0.00D+00 EMaxC= 1.00D-01 BMatC= 9.97D-10 BMatP= 8.46D-09
 IDIUse=1 WtCom= 1.00D+00 WtEn= 0.00D+00
 Coeff-Com:  0.196D-02 0.254D+00 0.744D+00
 Coeff:      0.196D-02 0.254D+00 0.744D+00
 Gap=     0.633 Goal=   None    Shift=    0.000
 RMSDP=9.79D-08 MaxDP=3.30D-06 DE=-4.49D-09 OVMax= 4.15D-06

 Cycle   9  Pass 1  IDiag  1:
 E= -437.501763902459     Delta-E=       -0.000000000580 Rises=F Damp=F
 DIIS: error= 9.67D-08 at cycle   4 NSaved=   4.
 NSaved= 4 IEnMin= 4 EnMin= -437.501763902459     IErMin= 4 ErrMin= 9.67D-08
 ErrMax= 9.67D-08  0.00D+00 EMaxC= 1.00D-01 BMatC= 1.59D-12 BMatP= 9.97D-10
 IDIUse=1 WtCom= 1.00D+00 WtEn= 0.00D+00
 Coeff-Com: -0.563D-02 0.428D-01 0.128D+00 0.835D+00
 Coeff:     -0.563D-02 0.428D-01 0.128D+00 0.835D+00
 Gap=     0.633 Goal=   None    Shift=    0.000
 RMSDP=5.39D-09 MaxDP=1.68D-07 DE=-5.80D-10 OVMax= 1.58D-07

 SCF Done:  E(RB3LYP) =  -437.501763902     A.U. after    9 cycles
            NFock=  9  Conv=0.54D-08     -V/T= 2.0053
 KE= 4.352069444499D+02 PE=-1.454471260589D+03 EE= 3.749295109227D+02
 Leave Link  502 at Wed Apr  8 17:10:50 2026, MaxMem=  1610612736 cpu:               8.6 elap:               1.7
 (Enter /leonardo/prod/opt/applications/g16/c02/binary/g16/l601.exe)
 Copying SCF densities to generalized density rwf, IOpCl= 0 IROHF=0.

 **********************************************************************

            Population analysis using the SCF Density.

 **********************************************************************

 Orbital symmetries:
       Occupied  (T2) (T2) (T2) (A1) (A1) (A1) (T2) (T2) (T2) (A1)
                 (T2) (T2) (T2) (E) (E) (T2) (T2) (T2) (T1) (T1)
                 (T1)
       Virtual   (T2) (T2) (T2) (A1) (A1) (T2) (T2) (T2) (T2) (T2)
                 (T2) (E) (E) (A1) (T2) (T2) (T2) (T2) (T2) (T2)
                 (E) (E) (T1) (T1) (T1) (T1) (T1) (T1) (E) (E)
                 (T2) (T2) (T2) (A1) (T2) (T2) (T2) (A1) (E) (E)
                 (T1) (T1) (T1) (T2) (T2) (T2) (T2) (T2) (T2) (T1)
                 (T1) (T1) (T2) (T2) (T2) (A1) (T2) (T2) (T2) (T2)
                 (T2) (T2) (A1) (T2) (T2) (T2) (E) (E) (T1) (T1)
                 (T1) (E) (E) (T2) (T2) (T2) (T1) (T1) (T1) (A1)
                 (E) (E) (T2) (T2) (T2) (A1) (A2) (T1) (T1) (T1)
                 (T2) (T2) (T2) (T1) (T1) (T1) (E) (E) (A1) (T2)
                 (T2) (T2) (T2) (T2) (T2) (E) (E) (T2) (T2) (T2)
                 (T1) (T1) (T1) (A1) (T2) (T2) (T2) (A1) (A1)
 The electronic state is 1-A1.
 Alpha  occ. eigenvalues --  -24.74897 -24.74897 -24.74897 -24.74896 -10.50450
 Alpha  occ. eigenvalues --   -1.37620  -1.25798  -1.25798  -1.25798  -0.72544
 Alpha  occ. eigenvalues --   -0.63595  -0.63595  -0.63595  -0.49928  -0.49928
 Alpha  occ. eigenvalues --   -0.47240  -0.47240  -0.47240  -0.42815  -0.42815
 Alpha  occ. eigenvalues --   -0.42815
 Alpha virt. eigenvalues --    0.20436   0.20436   0.20436   0.20455   0.34471
 Alpha virt. eigenvalues --    0.38035   0.38035   0.38035   0.67489   0.67489
 Alpha virt. eigenvalues --    0.67489   0.77487   0.77487   0.86398   0.87324
 Alpha virt. eigenvalues --    0.87324   0.87324   0.95311   0.95311   0.95311
 Alpha virt. eigenvalues --    0.99403   0.99403   1.04096   1.04096   1.04096
 Alpha virt. eigenvalues --    1.08451   1.08451   1.08451   1.22539   1.22539
 Alpha virt. eigenvalues --    1.32512   1.32512   1.32512   1.49680   1.51226
 Alpha virt. eigenvalues --    1.51226   1.51226   1.67445   1.76174   1.76174
 Alpha virt. eigenvalues --    1.76857   1.76857   1.76857   1.92762   1.92762
 Alpha virt. eigenvalues --    1.92762   2.31347   2.31347   2.31347   3.10113
 Alpha virt. eigenvalues --    3.10113   3.10113   3.14613   3.14613   3.14613
 Alpha virt. eigenvalues --    3.52159   3.77309   3.77309   3.77309   4.01111
 Alpha virt. eigenvalues --    4.01111   4.01111   4.09839   4.13220   4.13220
 Alpha virt. eigenvalues --    4.13220   4.15005   4.15005   4.20518   4.20518
 Alpha virt. eigenvalues --    4.20518   4.22381   4.22381   4.55765   4.55765
 Alpha virt. eigenvalues --    4.55765   4.61125   4.61125   4.61125   4.66440
 Alpha virt. eigenvalues --    4.71739   4.71739   4.85441   4.85441   4.85441
 Alpha virt. eigenvalues --    6.52081   6.58032   6.58125   6.58125   6.58125
 Alpha virt. eigenvalues --    6.58892   6.58892   6.58892   6.60350   6.60350
 Alpha virt. eigenvalues --    6.60350   6.60677   6.60677   6.65147   6.91023
 Alpha virt. eigenvalues --    6.91023   6.91023   7.13409   7.13409   7.13409
 Alpha virt. eigenvalues --    7.30609   7.30609   7.44896   7.44896   7.44896
 Alpha virt. eigenvalues --    7.61826   7.61826   7.61826   8.43830   9.62448
 Alpha virt. eigenvalues --    9.62448   9.62448   9.94360  13.16741
          Condensed to atoms (all electrons):
               1          2          3          4          5
     1  F    8.706585   0.453172  -0.033685  -0.033685  -0.033685
     2  C    0.453172   3.952510   0.453172   0.453172   0.453172
     3  F   -0.033685   0.453172   8.706585  -0.033685  -0.033685
     4  F   -0.033685   0.453172  -0.033685   8.706585  -0.033685
     5  F   -0.033685   0.453172  -0.033685  -0.033685   8.706585
 Mulliken charges:
               1
     1  F   -0.058701
     2  C    0.234803
     3  F   -0.058701
     4  F   -0.058701
     5  F   -0.058701
 Sum of Mulliken charges =  -0.00000
 Mulliken charges with hydrogens summed into heavy atoms:
               1
     1  F   -0.058701
     2  C    0.234803
     3  F   -0.058701
     4  F   -0.058701
     5  F   -0.058701
 Electronic spatial extent (au):  <R**2>=            276.7765
 Charge=              0.0000 electrons
 Dipole moment (field-independent basis, Debye):
    X=              0.0000    Y=             -0.0000    Z=              0.0000  Tot=              0.0000
 Quadrupole moment (field-independent basis, Debye-Ang):
   XX=            -24.5629   YY=            -24.5629   ZZ=            -24.5629
   XY=              0.0000   XZ=              0.0000   YZ=              0.0000
 Traceless Quadrupole moment (field-independent basis, Debye-Ang):
   XX=              0.0000   YY=              0.0000   ZZ=             -0.0000
   XY=              0.0000   XZ=              0.0000   YZ=              0.0000
 Octapole moment (field-independent basis, Debye-Ang**2):
  XXX=             -0.0000  YYY=             -0.0000  ZZZ=              0.0000  XYY=             -0.0000
  XXY=              0.0000  XXZ=              0.0000  XZZ=             -0.0000  YZZ=             -0.0000
  YYZ=              0.0000  XYZ=             -0.9178
 Hexadecapole moment (field-independent basis, Debye-Ang**3):
 XXXX=            -77.5694 YYYY=            -77.5694 ZZZZ=            -77.5694 XXXY=              0.0000
 XXXZ=              0.0000 YYYX=              0.0000 YYYZ=              0.0000 ZZZX=              0.0000
 ZZZY=             -0.0000 XXYY=            -25.8697 XXZZ=            -25.8697 YYZZ=            -25.8697
 XXYZ=              0.0000 YYXZ=             -0.0000 ZZXY=              0.0000
 N-N= 2.068330413136D+02 E-N=-1.454471256180D+03  KE= 4.352069444499D+02
 Symmetry A    KE= 1.314065973136D+02
 Symmetry B1   KE= 1.012667823788D+02
 Symmetry B2   KE= 1.012667823788D+02
 Symmetry B3   KE= 1.012667823788D+02
 No NMR shielding tensors so no spin-rotation constants.
 Leave Link  601 at Wed Apr  8 17:10:51 2026, MaxMem=  1610612736 cpu:               1.5 elap:               0.4
 (Enter /leonardo/prod/opt/applications/g16/c02/binary/g16/l701.exe)
 ... and contract with generalized density number  0.
 Compute integral first derivatives.
 Leave Link  701 at Wed Apr  8 17:10:51 2026, MaxMem=  1610612736 cpu:               1.1 elap:               0.3
 (Enter /leonardo/prod/opt/applications/g16/c02/binary/g16/l702.exe)
 L702 exits ... SP integral derivatives will be done elsewhere.
 Leave Link  702 at Wed Apr  8 17:10:52 2026, MaxMem=  1610612736 cpu:               0.1 elap:               0.1
 (Enter /leonardo/prod/opt/applications/g16/c02/binary/g16/l703.exe)
 Integral derivatives from FoFJK, PRISM(SPDF).
 Compute integral first derivatives, UseDBF=F ICtDFT=           0.
 Calling FoFJK, ICntrl=      2127 FMM=F ISym2X=1 I1Cent= 0 IOpClX= 0 NMat=1 NMatS=1 NMatT=0.
 FoFJK:  IHMeth= 1 ICntrl=    2127 DoSepK=F KAlg= 0 I1Cent=           0 FoldK=F
 IRaf=         0 NMat=       1 IRICut=       1 DoRegI=T DoRafI=F ISym2E= 1 IDoP0=0 IntGTp=1.
 FoFCou: FMM=F IPFlag=           0 FMFlag=      100000 FMFlg1=         800
         NFxFlg=           0 DoJE=F BraDBF=F KetDBF=F FulRan=T
         wScrn=  0.000000 ICntrl=      2127 IOpCl=  0 I1Cent=           0 NGrid=           0
         NMat0=    1 NMatS0=      1 NMatT0=    0 NMatD0=    1 NMtDS0=    0 NMtDT0=    0
 Petite list used in FoFCou.
 Leave Link  703 at Wed Apr  8 17:10:53 2026, MaxMem=  1610612736 cpu:               4.2 elap:               0.6
 (Enter /leonardo/prod/opt/applications/g16/c02/binary/g16/l716.exe)
 Dipole        = 8.88178420D-16-1.55431223D-15-6.66133815D-16
 ***** Axes restored to original set *****
 -------------------------------------------------------------------
 Center     Atomic                   Forces (Hartrees/Bohr)
 Number     Number              X              Y              Z
 -------------------------------------------------------------------
      1        9          -0.005189420   -0.002983719   -0.006162086
      2        6          -0.000000000   -0.000000000    0.000000000
      3        9          -0.001601883    0.008338976    0.001303619
      4        9          -0.001392264   -0.004354651    0.007273416
      5        9           0.008183568   -0.001000606   -0.002414949
 -------------------------------------------------------------------
 Cartesian Forces:  Max     0.008338976 RMS     0.004436334
 Leave Link  716 at Wed Apr  8 17:10:53 2026, MaxMem=  1610612736 cpu:               0.0 elap:               0.1
 (Enter /leonardo/prod/opt/applications/g16/c02/binary/g16/l103.exe)

 GradGradGradGradGradGradGradGradGradGradGradGradGradGradGradGradGradGrad
 Berny optimization.
 FormGI is forming the generalized inverse of G from B-inverse, IUseBI=4.
 Internal  Forces:  Max     0.008590924 RMS     0.005180522
 Search for a local minimum.
 Step number   1 out of a maximum of   21
 All quantities printed in internal units (Hartrees-Bohrs-Radians)
 RMS Force = .51805D-02 SwitMx=.10000D-02 MixMth= 1
 Mixed Optimization -- RFO/linear search
 Second derivative matrix not updated -- first step.
 The second derivative matrix:
                          R1        R2        R3        R4        A1
           R1           0.63433
           R2           0.00000   0.63433
           R3           0.00000   0.00000   0.63433
           R4           0.00000   0.00000   0.00000   0.63433
           A1           0.00000   0.00000   0.00000   0.00000   0.25000
           A2           0.00000   0.00000   0.00000   0.00000   0.00000
           A3           0.00000   0.00000   0.00000   0.00000   0.00000
           A4           0.00000   0.00000   0.00000   0.00000   0.00000
           A5           0.00000   0.00000   0.00000   0.00000   0.00000
           A6           0.00000   0.00000   0.00000   0.00000   0.00000
           D1           0.00000   0.00000   0.00000   0.00000   0.00000
                          A2        A3        A4        A5        A6
           A2           0.25000
           A3           0.00000   0.25000
           A4           0.00000   0.00000   0.25000
           A5           0.00000   0.00000   0.00000   0.25000
           A6           0.00000   0.00000   0.00000   0.00000   0.25000
           D1           0.00000   0.00000   0.00000   0.00000   0.00000
                          D1
           D1           0.02564
 ITU=  0
     Eigenvalues ---    0.12535   0.25000   0.25000   0.25000   0.25000
     Eigenvalues ---    0.63433   0.63433   0.63433   0.63433
 RFO step:  Lambda=-4.65054025D-04 EMin= 1.25354835D-01
 Linear search not attempted -- first point.
 Iteration  1 RMS(Cart)=  0.00816089 RMS(Int)=  0.00000000
 Iteration  2 RMS(Cart)=  0.00000000 RMS(Int)=  0.00000000
 ITry= 1 IFail=0 DXMaxC= 1.31D-02 DCOld= 1.00D+10 DXMaxT= 3.00D-01 DXLimC= 3.00D+00 Rises=F
 ClnCor:  largest displacement from symmetrization is 3.77D-13 for atom     3.
 Variable       Old X    -DE/DX   Delta X   Delta X   Delta X     New X
                                 (Linear)    (Quad)   (Total)
    R1        2.48323   0.00859   0.00000   0.01353   0.01353   2.49676
    R2        2.48323   0.00859   0.00000   0.01353   0.01353   2.49676
    R3        2.48323   0.00859   0.00000   0.01353   0.01353   2.49676
    R4        2.48323   0.00859   0.00000   0.01353   0.01353   2.49676
    A1        1.91063   0.00000   0.00000   0.00000   0.00000   1.91063
    A2        1.91063  -0.00000   0.00000  -0.00000   0.00000   1.91063
    A3        1.91063  -0.00000   0.00000  -0.00000  -0.00000   1.91063
    A4        1.91063  -0.00000   0.00000  -0.00000  -0.00000   1.91063
    A5        1.91063   0.00000   0.00000   0.00000   0.00000   1.91063
    A6        1.91063  -0.00000   0.00000  -0.00000   0.00000   1.91063
    D1        2.09440   0.00000   0.00000   0.00000   0.00000   2.09440
         Item               Value     Threshold  Converged?
 Maximum Force            0.008591     0.000450     NO 
 RMS     Force            0.005181     0.000300     NO 
 Maximum Displacement     0.013136     0.001800     NO 
 RMS     Displacement     0.008161     0.001200     NO 
 Predicted change in Energy=-2.326975D-04
 Lowest energy point so far.  Saving SCF results.
 GradGradGradGradGradGradGradGradGradGradGradGradGradGradGradGradGradGrad

 Leave Link  103 at Wed Apr  8 17:10:54 2026, MaxMem=  1610612736 cpu:               0.1 elap:               0.5
 (Enter /leonardo/prod/opt/applications/g16/c02/binary/g16/l202.exe)
                          Input orientation:                          
 ---------------------------------------------------------------------
 Center     Atomic      Atomic             Coordinates (Angstroms)
 Number     Number       Type             X           Y           Z
 ---------------------------------------------------------------------
      1          9           0       -0.798099   -0.458877   -0.947689
      2          6           0       -0.000000   -0.000000   -0.000000
      3          9           0       -0.246359    1.282480    0.200488
      4          9           0       -0.214121   -0.669717    1.118603
      5          9           0        1.258579   -0.153887   -0.371403
 ---------------------------------------------------------------------
                    Distance matrix (angstroms):
                    1          2          3          4          5
     1  F    0.000000
     2  C    1.321228   0.000000
     3  F    2.157556   1.321228   0.000000
     4  F    2.157556   1.321228   2.157556   0.000000
     5  F    2.157556   1.321228   2.157556   2.157556   0.000000
 Stoichiometry    CF4
 Framework group  TD[O(C),4C3(F)]
 Deg. of freedom     1
 Full point group                 TD      NOp  24
 RotChk:  IX=0 Diff= 1.24D-15
 Largest Abelian subgroup         D2      NOp   4
 Largest concise Abelian subgroup D2      NOp   4
                         Standard orientation:                         
 ---------------------------------------------------------------------
 Center     Atomic      Atomic             Coordinates (Angstroms)
 Number     Number       Type             X           Y           Z
 ---------------------------------------------------------------------
      1          9           0        0.762811    0.762811    0.762811
      2          6           0        0.000000    0.000000    0.000000
      3          9           0       -0.762811   -0.762811    0.762811
      4          9           0       -0.762811    0.762811   -0.762811
      5          9           0        0.762811   -0.762811   -0.762811
 ---------------------------------------------------------------------
 Rotational constants (GHZ):           5.7144713           5.7144713           5.7144713
 Leave Link  202 at Wed Apr  8 17:10:54 2026, MaxMem=  1610612736 cpu:               0.1 elap:               0.1
 (Enter /leonardo/prod/opt/applications/g16/c02/binary/g16/l301.exe)
 Standard basis: 6-31G(2df,p) (6D, 7F)
 Ernie: Thresh=  0.10000D-02 Tol=  0.10000D-05 Strict=F.
 There are    41 symmetry adapted cartesian basis functions of A   symmetry.
 There are    38 symmetry adapted cartesian basis functions of B1  symmetry.
 There are    38 symmetry adapted cartesian basis functions of B2  symmetry.
 There are    38 symmetry adapted cartesian basis functions of B3  symmetry.
 There are    38 symmetry adapted basis functions of A   symmetry.
 There are    34 symmetry adapted basis functions of B1  symmetry.
 There are    34 symmetry adapted basis functions of B2  symmetry.
 There are    34 symmetry adapted basis functions of B3  symmetry.
   140 basis functions,   220 primitive gaussians,   155 cartesian basis functions
    21 alpha electrons       21 beta electrons
       nuclear repulsion energy       205.7119340093 Hartrees.
 IExCor=  402 DFT=T Ex+Corr=B3LYP ExCW=0 ScaHFX=  0.200000
 ScaDFX=  0.800000  0.720000  1.000000  0.810000 ScalE2=  1.000000  1.000000
 IRadAn=      5 IRanWt=     -1 IRanGd=            0 ICorTp=0 IEmpDi=  4
 NAtoms=    5 NActive=    5 NUniq=    2 SFac= 4.00D+00 NAtFMM=   60 NAOKFM=F Big=F
 Integral buffers will be    131072 words long.
 Raffenetti 2 integral format.
 Two-electron integral symmetry is turned on.
 Leave Link  301 at Wed Apr  8 17:10:55 2026, MaxMem=  1610612736 cpu:               0.1 elap:               0.1
 (Enter /leonardo/prod/opt/applications/g16/c02/binary/g16/l302.exe)
 NPDir=0 NMtPBC=     1 NCelOv=     1 NCel=       1 NClECP=     1 NCelD=      1
         NCelK=      1 NCelE2=     1 NClLst=     1 CellRange=     0.0.
 One-electron integrals computed using PRISM.
 One-electron integral symmetry used in STVInt
 NBasis=   140 RedAO= T EigKep=  1.76D-03  NBF=    38    34    34    34
 NBsUse=   140 1.00D-06 EigRej= -1.00D+00 NBFU=    38    34    34    34
 Precomputing XC quadrature grid using
 IXCGrd= 4 IRadAn=           5 IRanWt=          -1 IRanGd=           0 AccXCQ= 0.00D+00.
 Generated NRdTot=       0 NPtTot=           0 NUsed=           0 NTot=          32
 NSgBfM=   155   155   155   155   155 MxSgAt=     5 MxSgA2=     5.
 Leave Link  302 at Wed Apr  8 17:10:55 2026, MaxMem=  1610612736 cpu:               1.3 elap:               0.3
 (Enter /leonardo/prod/opt/applications/g16/c02/binary/g16/l303.exe)
 DipDrv:  MaxL=1.
 Leave Link  303 at Wed Apr  8 17:10:56 2026, MaxMem=  1610612736 cpu:               0.1 elap:               0.1
 (Enter /leonardo/prod/opt/applications/g16/c02/binary/g16/l401.exe)
 Initial guess from the checkpoint file:  "file.chk"
 B after Tr=    -0.000000    0.000000    0.000000
         Rot=    1.000000    0.000000   -0.000000   -0.000000 Ang=   0.00 deg.
 Guess basis will be translated and rotated to current coordinates.
 JPrj=2 DoOrth=T DoCkMO=T.
 Initial guess orbital symmetries:
       Occupied  (T2) (T2) (T2) (A1) (A1) (A1) (T2) (T2) (T2) (A1)
                 (T2) (T2) (T2) (E) (E) (T2) (T2) (T2) (T1) (T1)
                 (T1)
       Virtual   (T2) (T2) (T2) (A1) (A1) (T2) (T2) (T2) (T2) (T2)
                 (T2) (E) (E) (A1) (T2) (T2) (T2) (T2) (T2) (T2)
                 (E) (E) (T1) (T1) (T1) (T1) (T1) (T1) (E) (E)
                 (T2) (T2) (T2) (A1) (T2) (T2) (T2) (A1) (E) (E)
                 (T1) (T1) (T1) (T2) (T2) (T2) (T2) (T2) (T2) (T1)
                 (T1) (T1) (T2) (T2) (T2) (A1) (T2) (T2) (T2) (T2)
                 (T2) (T2) (A1) (T2) (T2) (T2) (E) (E) (T1) (T1)
                 (T1) (E) (E) (T2) (T2) (T2) (T1) (T1) (T1) (A1)
                 (E) (E) (T2) (T2) (T2) (A1) (A2) (T1) (T1) (T1)
                 (T2) (T2) (T2) (T1) (T1) (T1) (E) (E) (A1) (T2)
                 (T2) (T2) (T2) (T2) (T2) (E) (E) (T2) (T2) (T2)
                 (T1) (T1) (T1) (A1) (T2) (T2) (T2) (A1) (A1)
 The electronic state of the initial guess is 1-A1.
 Leave Link  401 at Wed Apr  8 17:10:56 2026, MaxMem=  1610612736 cpu:               0.3 elap:               0.2
 (Enter /leonardo/prod/opt/applications/g16/c02/binary/g16/l502.exe)
 Keep R1 ints in memory in symmetry-blocked form, NReq=60922220.
 FoFCou: FMM=F IPFlag=           0 FMFlag=           0 FMFlg1=           0
         NFxFlg=           0 DoJE=F BraDBF=F KetDBF=F FulRan=T
         wScrn=  0.000000 ICntrl=       600 IOpCl=  0 I1Cent=           0 NGrid=           0
         NMat0=    1 NMatS0=   9870 NMatT0=    0 NMatD0=    1 NMtDS0=    0 NMtDT0=    0
 Petite list used in FoFCou.
 Closed shell SCF:
 Using DIIS extrapolation, IDIIS=  1040.
 NGot=  1610612736 LenX=  1598353422 LenY=  1598328956
 Requested convergence on RMS density matrix=1.00D-08 within 128 cycles.
 Requested convergence on MAX density matrix=1.00D-06.
 Requested convergence on             energy=1.00D-06.
 No special actions if energy rises.

 Cycle   1  Pass 1  IDiag  1:
 E= -437.501880328709    
 DIIS: error= 9.90D-04 at cycle   1 NSaved=   1.
 NSaved= 1 IEnMin= 1 EnMin= -437.501880328709     IErMin= 1 ErrMin= 9.90D-04
 ErrMax= 9.90D-04  0.00D+00 EMaxC= 1.00D-01 BMatC= 1.41D-04 BMatP= 1.41D-04
 IDIUse=3 WtCom= 9.90D-01 WtEn= 9.90D-03
 Coeff-Com:  0.100D+01
 Coeff-En:   0.100D+01
 Coeff:      0.100D+01
 Gap=     0.626 Goal=   None    Shift=    0.000
 RMSDP=1.18D-04 MaxDP=2.34D-03              OVMax= 3.98D-03

 Cycle   2  Pass 1  IDiag  1:
 E= -437.501993515826     Delta-E=       -0.000113187118 Rises=F Damp=F
 DIIS: error= 3.71D-04 at cycle   2 NSaved=   2.
 NSaved= 2 IEnMin= 2 EnMin= -437.501993515826     IErMin= 2 ErrMin= 3.71D-04
 ErrMax= 3.71D-04  0.00D+00 EMaxC= 1.00D-01 BMatC= 1.08D-05 BMatP= 1.41D-04
 IDIUse=3 WtCom= 9.96D-01 WtEn= 3.71D-03
 Coeff-Com:  0.142D+00 0.858D+00
 Coeff-En:   0.000D+00 0.100D+01
 Coeff:      0.142D+00 0.858D+00
 Gap=     0.622 Goal=   None    Shift=    0.000
 RMSDP=2.64D-05 MaxDP=5.97D-04 DE=-1.13D-04 OVMax= 8.75D-04

 Cycle   3  Pass 1  IDiag  1:
 E= -437.501999033004     Delta-E=       -0.000005517178 Rises=F Damp=F
 DIIS: error= 1.46D-04 at cycle   3 NSaved=   3.
 NSaved= 3 IEnMin= 3 EnMin= -437.501999033004     IErMin= 3 ErrMin= 1.46D-04
 ErrMax= 1.46D-04  0.00D+00 EMaxC= 1.00D-01 BMatC= 2.89D-06 BMatP= 1.08D-05
 IDIUse=3 WtCom= 9.99D-01 WtEn= 1.46D-03
 Coeff-Com: -0.144D-01 0.325D+00 0.689D+00
 Coeff-En:   0.000D+00 0.105D+00 0.895D+00
 Coeff:     -0.143D-01 0.325D+00 0.689D+00
 Gap=     0.622 Goal=   None    Shift=    0.000
 RMSDP=8.67D-06 MaxDP=2.69D-04 DE=-5.52D-06 OVMax= 2.99D-04

 Cycle   4  Pass 1  IDiag  1:
 E= -437.502000948938     Delta-E=       -0.000001915933 Rises=F Damp=F
 DIIS: error= 3.34D-05 at cycle   4 NSaved=   4.
 NSaved= 4 IEnMin= 4 EnMin= -437.502000948938     IErMin= 4 ErrMin= 3.34D-05
 ErrMax= 3.34D-05  0.00D+00 EMaxC= 1.00D-01 BMatC= 9.85D-08 BMatP= 2.89D-06
 IDIUse=1 WtCom= 1.00D+00 WtEn= 0.00D+00
 Coeff-Com: -0.667D-02 0.130D+00 0.294D+00 0.583D+00
 Coeff:     -0.667D-02 0.130D+00 0.294D+00 0.583D+00
 Gap=     0.622 Goal=   None    Shift=    0.000
 RMSDP=1.39D-06 MaxDP=4.82D-05 DE=-1.92D-06 OVMax= 6.27D-05

 Cycle   5  Pass 1  IDiag  1:
 E= -437.502000999320     Delta-E=       -0.000000050383 Rises=F Damp=F
 DIIS: error= 1.07D-05 at cycle   5 NSaved=   5.
 NSaved= 5 IEnMin= 5 EnMin= -437.502000999320     IErMin= 5 ErrMin= 1.07D-05
 ErrMax= 1.07D-05  0.00D+00 EMaxC= 1.00D-01 BMatC= 1.63D-08 BMatP= 9.85D-08
 IDIUse=1 WtCom= 1.00D+00 WtEn= 0.00D+00
 Coeff-Com: -0.102D-02 0.106D-02 0.184D-01 0.292D+00 0.689D+00
 Coeff:     -0.102D-02 0.106D-02 0.184D-01 0.292D+00 0.689D+00
 Gap=     0.622 Goal=   None    Shift=    0.000
 RMSDP=4.62D-07 MaxDP=1.67D-05 DE=-5.04D-08 OVMax= 1.73D-05

 Cycle   6  Pass 1  IDiag  1:
 E= -437.502001008561     Delta-E=       -0.000000009240 Rises=F Damp=F
 DIIS: error= 6.88D-07 at cycle   6 NSaved=   6.
 NSaved= 6 IEnMin= 6 EnMin= -437.502001008561     IErMin= 6 ErrMin= 6.88D-07
 ErrMax= 6.88D-07  0.00D+00 EMaxC= 1.00D-01 BMatC= 3.57D-11 BMatP= 1.63D-08
 IDIUse=1 WtCom= 1.00D+00 WtEn= 0.00D+00
 Coeff-Com: -0.105D-03-0.138D-02-0.846D-05 0.443D-01 0.132D+00 0.826D+00
 Coeff:     -0.105D-03-0.138D-02-0.846D-05 0.443D-01 0.132D+00 0.826D+00
 Gap=     0.622 Goal=   None    Shift=    0.000
 RMSDP=3.09D-08 MaxDP=1.18D-06 DE=-9.24D-09 OVMax= 9.08D-07

 Cycle   7  Pass 1  IDiag  1:
 E= -437.502001008571     Delta-E=       -0.000000000010 Rises=F Damp=F
 DIIS: error= 3.38D-08 at cycle   7 NSaved=   7.
 NSaved= 7 IEnMin= 7 EnMin= -437.502001008571     IErMin= 7 ErrMin= 3.38D-08
 ErrMax= 3.38D-08  0.00D+00 EMaxC= 1.00D-01 BMatC= 1.46D-13 BMatP= 3.57D-11
 IDIUse=1 WtCom= 1.00D+00 WtEn= 0.00D+00
 Coeff-Com:  0.816D-05-0.993D-04-0.399D-03-0.141D-02-0.410D-02 0.132D-01
 Coeff-Com:  0.993D+00
 Coeff:      0.816D-05-0.993D-04-0.399D-03-0.141D-02-0.410D-02 0.132D-01
 Coeff:      0.993D+00
 Gap=     0.622 Goal=   None    Shift=    0.000
 RMSDP=2.33D-09 MaxDP=7.75D-08 DE=-1.00D-11 OVMax= 7.96D-08

 SCF Done:  E(RB3LYP) =  -437.502001009     A.U. after    7 cycles
            NFock=  7  Conv=0.23D-08     -V/T= 2.0055
 KE= 4.351209669442D+02 PE=-1.452180613092D+03 EE= 3.738457111298D+02
 Leave Link  502 at Wed Apr  8 17:10:58 2026, MaxMem=  1610612736 cpu:               8.1 elap:               1.2
 (Enter /leonardo/prod/opt/applications/g16/c02/binary/g16/l701.exe)
 ... and contract with generalized density number  0.
 Compute integral first derivatives.
 Leave Link  701 at Wed Apr  8 17:10:58 2026, MaxMem=  1610612736 cpu:               1.2 elap:               0.3
 (Enter /leonardo/prod/opt/applications/g16/c02/binary/g16/l702.exe)
 L702 exits ... SP integral derivatives will be done elsewhere.
 Leave Link  702 at Wed Apr  8 17:10:58 2026, MaxMem=  1610612736 cpu:               0.0 elap:               0.1
 (Enter /leonardo/prod/opt/applications/g16/c02/binary/g16/l703.exe)
 Integral derivatives from FoFJK, PRISM(SPDF).
 Compute integral first derivatives, UseDBF=F ICtDFT=           0.
 Calling FoFJK, ICntrl=      2127 FMM=F ISym2X=1 I1Cent= 0 IOpClX= 0 NMat=1 NMatS=1 NMatT=0.
 FoFJK:  IHMeth= 1 ICntrl=    2127 DoSepK=F KAlg= 0 I1Cent=           0 FoldK=F
 IRaf=         0 NMat=       1 IRICut=       1 DoRegI=T DoRafI=F ISym2E= 1 IDoP0=0 IntGTp=1.
 FoFCou: FMM=F IPFlag=           0 FMFlag=      100000 FMFlg1=         800
         NFxFlg=           0 DoJE=F BraDBF=F KetDBF=F FulRan=T
         wScrn=  0.000000 ICntrl=      2127 IOpCl=  0 I1Cent=           0 NGrid=           0
         NMat0=    1 NMatS0=      1 NMatT0=    0 NMatD0=    1 NMtDS0=    0 NMtDT0=    0
 Petite list used in FoFCou.
 Leave Link  703 at Wed Apr  8 17:10:59 2026, MaxMem=  1610612736 cpu:               4.0 elap:               0.6
 (Enter /leonardo/prod/opt/applications/g16/c02/binary/g16/l716.exe)
 Dipole        =-2.22044605D-16 6.66133815D-16-2.22044605D-15
 ***** Axes restored to original set *****
 -------------------------------------------------------------------
 Center     Atomic                   Forces (Hartrees/Bohr)
 Number     Number              X              Y              Z
 -------------------------------------------------------------------
      1        9          -0.000143079   -0.000082265   -0.000169896
      2        6          -0.000000000   -0.000000000    0.000000000
      3        9          -0.000044166    0.000229916    0.000035942
      4        9          -0.000038386   -0.000120063    0.000200537
      5        9           0.000225631   -0.000027588   -0.000066583
 -------------------------------------------------------------------
 Cartesian Forces:  Max     0.000229916 RMS     0.000122315
 Leave Link  716 at Wed Apr  8 17:11:00 2026, MaxMem=  1610612736 cpu:               0.0 elap:               0.1
 (Enter /leonardo/prod/opt/applications/g16/c02/binary/g16/l103.exe)

 GradGradGradGradGradGradGradGradGradGradGradGradGradGradGradGradGradGrad
 Berny optimization.
 Using GEDIIS/GDIIS optimizer.
 FormGI is forming the generalized inverse of G from B-inverse, IUseBI=4.
 Internal  Forces:  Max     0.000236862 RMS     0.000142833
 Search for a local minimum.
 Step number   2 out of a maximum of   21
 All quantities printed in internal units (Hartrees-Bohrs-Radians)
 RMS Force = .14283D-03 SwitMx=.10000D-02 MixMth= 2
 Mixed Optimization -- En-DIIS/RFO-DIIS
 Update second derivatives using D2CorX and points    1    2
 DE= -2.37D-04 DEPred=-2.33D-04 R= 1.02D+00
 TightC=F SS=  1.41D+00  RLast= 2.71D-02 DXNew= 5.0454D-01 8.1200D-02
 Trust test= 1.02D+00 RLast= 2.71D-02 DXMaxT set to 3.00D-01
 The second derivative matrix:
                          R1        R2        R3        R4        A1
           R1           0.63007
           R2          -0.00426   0.63007
           R3          -0.00426  -0.00426   0.63007
           R4          -0.00426  -0.00426  -0.00426   0.63007
           A1          -0.00000  -0.00000  -0.00000  -0.00000   0.25000
           A2           0.00000   0.00000   0.00000   0.00000  -0.00000
           A3          -0.00000  -0.00000  -0.00000  -0.00000   0.00000
           A4          -0.00000  -0.00000  -0.00000  -0.00000   0.00000
           A5           0.00000   0.00000   0.00000   0.00000  -0.00000
           A6          -0.00000  -0.00000  -0.00000  -0.00000   0.00000
           D1          -0.00000  -0.00000  -0.00000  -0.00000   0.00000
                          A2        A3        A4        A5        A6
           A2           0.25000
           A3          -0.00000   0.25000
           A4          -0.00000   0.00000   0.25000
           A5           0.00000  -0.00000  -0.00000   0.25000
           A6          -0.00000   0.00000   0.00000  -0.00000   0.25000
           D1          -0.00000   0.00000   0.00000  -0.00000   0.00000
                          D1
           D1           0.02564
 ITU=  1  0
 Use linear search instead of GDIIS.
     Eigenvalues ---    0.12535   0.25000   0.25000   0.25000   0.25000
     Eigenvalues ---    0.61730   0.63433   0.63433   0.63433
 RFO step:  Lambda= 0.00000000D+00 EMin= 1.25354835D-01
 Quartic linear search produced a step of  0.02908.
 Iteration  1 RMS(Cart)=  0.00023730 RMS(Int)=  0.00000000
 Iteration  2 RMS(Cart)=  0.00000000 RMS(Int)=  0.00000000
 ITry= 1 IFail=0 DXMaxC= 3.82D-04 DCOld= 1.00D+10 DXMaxT= 3.00D-01 DXLimC= 3.00D+00 Rises=F
 ClnCor:  largest displacement from symmetrization is 2.72D-13 for atom     1.
 Variable       Old X    -DE/DX   Delta X   Delta X   Delta X     New X
                                 (Linear)    (Quad)   (Total)
    R1        2.49676   0.00024   0.00039  -0.00000   0.00039   2.49715
    R2        2.49676   0.00024   0.00039   0.00000   0.00039   2.49715
    R3        2.49676   0.00024   0.00039  -0.00000   0.00039   2.49715
    R4        2.49676   0.00024   0.00039   0.00000   0.00039   2.49715
    A1        1.91063   0.00000  -0.00000   0.00000   0.00000   1.91063
    A2        1.91063  -0.00000   0.00000  -0.00000   0.00000   1.91063
    A3        1.91063  -0.00000  -0.00000  -0.00000  -0.00000   1.91063
    A4        1.91063   0.00000  -0.00000   0.00000  -0.00000   1.91063
    A5        1.91063   0.00000   0.00000   0.00000   0.00000   1.91063
    A6        1.91063   0.00000  -0.00000   0.00000   0.00000   1.91063
    D1        2.09440   0.00000  -0.00000   0.00000   0.00000   2.09440
         Item               Value     Threshold  Converged?
 Maximum Force            0.000237     0.000450     YES
 RMS     Force            0.000143     0.000300     YES
 Maximum Displacement     0.000382     0.001800     YES
 RMS     Displacement     0.000237     0.001200     YES
 Predicted change in Energy=-1.816537D-07
 Optimization completed.
    -- Stationary point found.
                           ----------------------------
                           !   Optimized Parameters   !
                           ! (Angstroms and Degrees)  !
 --------------------------                            --------------------------
 ! Name  Definition              Value          Derivative Info.                !
 --------------------------------------------------------------------------------
 ! R1    R(1,2)                  1.3212         -DE/DX =    0.0002              !
 ! R2    R(2,3)                  1.3212         -DE/DX =    0.0002              !
 ! R3    R(2,4)                  1.3212         -DE/DX =    0.0002              !
 ! R4    R(2,5)                  1.3212         -DE/DX =    0.0002              !
 ! A1    A(1,2,3)              109.4712         -DE/DX =    0.0                 !
 ! A2    A(1,2,4)              109.4712         -DE/DX =    0.0                 !
 ! A3    A(1,2,5)              109.4712         -DE/DX =    0.0                 !
 ! A4    A(3,2,4)              109.4712         -DE/DX =    0.0                 !
 ! A5    A(3,2,5)              109.4712         -DE/DX =    0.0                 !
 ! A6    A(4,2,5)              109.4712         -DE/DX =    0.0                 !
 ! D1    D(3,2,5,4)            120.0            -DE/DX =    0.0                 !
 --------------------------------------------------------------------------------
 Lowest energy point so far.  Saving SCF results.
 Largest change from initial coordinates is atom    5       0.007 Angstoms.
 GradGradGradGradGradGradGradGradGradGradGradGradGradGradGradGradGradGrad

 Leave Link  103 at Wed Apr  8 17:11:00 2026, MaxMem=  1610612736 cpu:               0.1 elap:               0.1
 (Enter /leonardo/prod/opt/applications/g16/c02/binary/g16/l202.exe)
                          Input orientation:                          
 ---------------------------------------------------------------------
 Center     Atomic      Atomic             Coordinates (Angstroms)
 Number     Number       Type             X           Y           Z
 ---------------------------------------------------------------------
      1          9           0       -0.798099   -0.458877   -0.947689
      2          6           0       -0.000000   -0.000000   -0.000000
      3          9           0       -0.246359    1.282480    0.200488
      4          9           0       -0.214121   -0.669717    1.118603
      5          9           0        1.258579   -0.153887   -0.371403
 ---------------------------------------------------------------------
                    Distance matrix (angstroms):
                    1          2          3          4          5
     1  F    0.000000
     2  C    1.321228   0.000000
     3  F    2.157556   1.321228   0.000000
     4  F    2.157556   1.321228   2.157556   0.000000
     5  F    2.157556   1.321228   2.157556   2.157556   0.000000
 Stoichiometry    CF4
 Framework group  TD[O(C),4C3(F)]
 Deg. of freedom     1
 Full point group                 TD      NOp  24
 RotChk:  IX=0 Diff= 9.30D-16
 Largest Abelian subgroup         D2      NOp   4
 Largest concise Abelian subgroup D2      NOp   4
                         Standard orientation:                         
 ---------------------------------------------------------------------
 Center     Atomic      Atomic             Coordinates (Angstroms)
 Number     Number       Type             X           Y           Z
 ---------------------------------------------------------------------
      1          9           0        0.762811    0.762811    0.762811
      2          6           0        0.000000    0.000000    0.000000
      3          9           0       -0.762811   -0.762811    0.762811
      4          9           0       -0.762811    0.762811   -0.762811
      5          9           0        0.762811   -0.762811   -0.762811
 ---------------------------------------------------------------------
 Rotational constants (GHZ):           5.7144713           5.7144713           5.7144713
 Leave Link  202 at Wed Apr  8 17:11:00 2026, MaxMem=  1610612736 cpu:               0.0 elap:               0.1
 (Enter /leonardo/prod/opt/applications/g16/c02/binary/g16/l601.exe)
 Copying SCF densities to generalized density rwf, IOpCl= 0 IROHF=0.

 **********************************************************************

            Population analysis using the SCF Density.

 **********************************************************************

 Orbital symmetries:
       Occupied  (T2) (T2) (T2) (A1) (A1) (A1) (T2) (T2) (T2) (A1)
                 (T2) (T2) (T2) (E) (E) (T2) (T2) (T2) (T1) (T1)
                 (T1)
       Virtual   (A1) (T2) (T2) (T2) (A1) (T2) (T2) (T2) (T2) (T2)
                 (T2) (E) (E) (A1) (T2) (T2) (T2) (T2) (T2) (T2)
                 (E) (E) (T1) (T1) (T1) (T1) (T1) (T1) (E) (E)
                 (T2) (T2) (T2) (T2) (T2) (T2) (A1) (A1) (T1) (T1)
                 (T1) (E) (E) (T2) (T2) (T2) (T2) (T2) (T2) (T1)
                 (T1) (T1) (T2) (T2) (T2) (A1) (T2) (T2) (T2) (T2)
                 (T2) (T2) (A1) (T2) (T2) (T2) (E) (E) (T1) (T1)
                 (T1) (E) (E) (T2) (T2) (T2) (T1) (T1) (T1) (A1)
                 (E) (E) (T2) (T2) (T2) (A1) (A2) (T1) (T1) (T1)
                 (T2) (T2) (T2) (T1) (T1) (T1) (E) (E) (A1) (T2)
                 (T2) (T2) (T2) (T2) (T2) (E) (E) (T2) (T2) (T2)
                 (T1) (T1) (T1) (A1) (T2) (T2) (T2) (A1) (A1)
 The electronic state is 1-A1.
 Alpha  occ. eigenvalues --  -24.74983 -24.74983 -24.74983 -24.74982 -10.50699
 Alpha  occ. eigenvalues --   -1.37149  -1.25599  -1.25599  -1.25599  -0.72553
 Alpha  occ. eigenvalues --   -0.63391  -0.63391  -0.63391  -0.49804  -0.49804
 Alpha  occ. eigenvalues --   -0.47186  -0.47186  -0.47186  -0.42862  -0.42862
 Alpha  occ. eigenvalues --   -0.42862
 Alpha virt. eigenvalues --    0.19376   0.19635   0.19635   0.19635   0.34436
 Alpha virt. eigenvalues --    0.38068   0.38068   0.38068   0.67438   0.67438
 Alpha virt. eigenvalues --    0.67438   0.77104   0.77104   0.86123   0.87297
 Alpha virt. eigenvalues --    0.87297   0.87297   0.95190   0.95190   0.95190
 Alpha virt. eigenvalues --    0.99541   0.99541   1.04111   1.04111   1.04111
 Alpha virt. eigenvalues --    1.08188   1.08188   1.08188   1.21957   1.21957
 Alpha virt. eigenvalues --    1.31833   1.31833   1.31833   1.50857   1.50857
 Alpha virt. eigenvalues --    1.50857   1.50890   1.67149   1.75614   1.75614
 Alpha virt. eigenvalues --    1.75614   1.76183   1.76183   1.92387   1.92387
 Alpha virt. eigenvalues --    1.92387   2.29666   2.29666   2.29666   3.10031
 Alpha virt. eigenvalues --    3.10031   3.10031   3.14018   3.14018   3.14018
 Alpha virt. eigenvalues --    3.49880   3.77261   3.77261   3.77261   4.01501
 Alpha virt. eigenvalues --    4.01501   4.01501   4.08114   4.13339   4.13339
 Alpha virt. eigenvalues --    4.13339   4.14589   4.14589   4.20551   4.20551
 Alpha virt. eigenvalues --    4.20551   4.21720   4.21720   4.55025   4.55025
 Alpha virt. eigenvalues --    4.55025   4.59980   4.59980   4.59980   4.65609
 Alpha virt. eigenvalues --    4.71469   4.71469   4.83490   4.83490   4.83490
 Alpha virt. eigenvalues --    6.46119   6.58097   6.58131   6.58131   6.58131
 Alpha virt. eigenvalues --    6.58901   6.58901   6.58901   6.60051   6.60051
 Alpha virt. eigenvalues --    6.60051   6.60342   6.60342   6.63989   6.89676
 Alpha virt. eigenvalues --    6.89676   6.89676   7.12127   7.12127   7.12127
 Alpha virt. eigenvalues --    7.29702   7.29702   7.42571   7.42571   7.42571
 Alpha virt. eigenvalues --    7.59824   7.59824   7.59824   8.42968   9.61267
 Alpha virt. eigenvalues --    9.61267   9.61267   9.91285  12.92379
          Condensed to atoms (all electrons):
               1          2          3          4          5
     1  F    8.715257   0.447436  -0.032960  -0.032960  -0.032960
     2  C    0.447436   3.955003   0.447436   0.447436   0.447436
     3  F   -0.032960   0.447436   8.715257  -0.032960  -0.032960
     4  F   -0.032960   0.447436  -0.032960   8.715257  -0.032960
     5  F   -0.032960   0.447436  -0.032960  -0.032960   8.715257
 Mulliken charges:
               1
     1  F   -0.063813
     2  C    0.255251
     3  F   -0.063813
     4  F   -0.063813
     5  F   -0.063813
 Sum of Mulliken charges =   0.00000
 Mulliken charges with hydrogens summed into heavy atoms:
               1
     1  F   -0.063813
     2  C    0.255251
     3  F   -0.063813
     4  F   -0.063813
     5  F   -0.063813
 Electronic spatial extent (au):  <R**2>=            279.2578
 Charge=             -0.0000 electrons
 Dipole moment (field-independent basis, Debye):
    X=             -0.0000    Y=             -0.0000    Z=              0.0000  Tot=              0.0000
 Quadrupole moment (field-independent basis, Debye-Ang):
   XX=            -24.5876   YY=            -24.5876   ZZ=            -24.5876
   XY=              0.0000   XZ=              0.0000   YZ=             -0.0000
 Traceless Quadrupole moment (field-independent basis, Debye-Ang):
   XX=              0.0000   YY=              0.0000   ZZ=             -0.0000
   XY=              0.0000   XZ=              0.0000   YZ=             -0.0000
 Octapole moment (field-independent basis, Debye-Ang**2):
  XXX=             -0.0000  YYY=             -0.0000  ZZZ=              0.0000  XYY=             -0.0000
  XXY=              0.0000  XXZ=              0.0000  XZZ=             -0.0000  YZZ=              0.0000
  YYZ=              0.0000  XYZ=             -0.9098
 Hexadecapole moment (field-independent basis, Debye-Ang**3):
 XXXX=            -78.2952 YYYY=            -78.2952 ZZZZ=            -78.2952 XXXY=              0.0000
 XXXZ=              0.0000 YYYX=              0.0000 YYYZ=             -0.0000 ZZZX=              0.0000
 ZZZY=             -0.0000 XXYY=            -26.0975 XXZZ=            -26.0975 YYZZ=            -26.0975
 XXYZ=             -0.0000 YYXZ=              0.0000 ZZXY=              0.0000
 N-N= 2.057119340093D+02 E-N=-1.452180611232D+03  KE= 4.351209669442D+02
 Symmetry A    KE= 1.313977743085D+02
 Symmetry B1   KE= 1.012410642119D+02
 Symmetry B2   KE= 1.012410642119D+02
 Symmetry B3   KE= 1.012410642119D+02
 No NMR shielding tensors so no spin-rotation constants.
 Leave Link  601 at Wed Apr  8 17:11:01 2026, MaxMem=  1610612736 cpu:               1.2 elap:               0.2
 (Enter /leonardo/prod/opt/applications/g16/c02/binary/g16/l9999.exe)
 Unable to Open any file for archive entry.
 1\1\GINC-LRDN4944\FOpt\RB3LYP\6-31G(2df,p)\C1F4\MORZA000\08-Apr-2026\0
 \\#p opt=addredundant B3LYP/6-31G(2df,p)\\Title Card Required\\0,1\F,-
 0.7980989828,-0.4588765802,-0.9476886447\C,-0.0000002143,-0.0000002143
 ,-0.0000002143\F,-0.2463593699,1.2824795164,0.2004877688\F,-0.21412127
 46,-0.6697169369,1.1186034722\F,1.2585787701,-0.1538868564,-0.37140345
 35\\Version=ES64L-G16RevC.02\State=1-A1\HF=-437.502001\RMSD=2.332e-09\
 RMSF=1.223e-04\Dipole=0.,0.,0.\Quadrupole=0.,0.,0.,0.,0.,0.\PG=TD [O(C
 1),4C3(F1)]\\@
 The archive entry for this job was punched.


 MORNING PEOPLE ARE USUALLY ADMIRED AS EARLY BIRDS.
 RECALL BEN FRANKLIN'S APHORISM THAT THE EARLY BIRD GETS THE WORM.
 I IDENTIFY WITH THE WORM. --  CRAIG JAGGER, MINNEAPOLIS, KS.
 Job cpu time:       0 days  0 hours  0 minutes 37.2 seconds.
 Elapsed time:       0 days  0 hours  0 minutes 10.0 seconds.
 File lengths (MBytes):  RWF=     14 Int=      0 D2E=      0 Chk=      3 Scr=      1
 Normal termination of Gaussian 16 at Wed Apr  8 17:11:01 2026.
