 Set GAUSS_PDEF to "12".
 Entering Gaussian System, Link 0=g16
 Initial command:
 /leonardo/prod/opt/applications/g16/c02/binary/g16/l1.exe "/leonardo_scratch/large/userexternal/morza000/g16_39399966/Gau-3335037.inp" -scrdir="/leonardo_scratch/large/userexternal/morza000/g16_39399966/"
 Default is to use a total of  12 processors:
                               12 via shared-memory
                                1 via Linda
 Entering Link 1 = /leonardo/prod/opt/applications/g16/c02/binary/g16/l1.exe PID=   3335038.
  
 Copyright (c) 1988-2021, Gaussian, Inc.  All Rights Reserved.
  
 This is part of the Gaussian(R) 16 program.  It is based on
 the Gaussian(R) 09 system (copyright 2009, Gaussian, Inc.),
 the Gaussian(R) 03 system (copyright 2003, Gaussian, Inc.),
 the Gaussian(R) 98 system (copyright 1998, Gaussian, Inc.),
 the Gaussian(R) 94 system (copyright 1995, Gaussian, Inc.),
 the Gaussian 92(TM) system (copyright 1992, Gaussian, Inc.),
 the Gaussian 90(TM) system (copyright 1990, Gaussian, Inc.),
 the Gaussian 88(TM) system (copyright 1988, Gaussian, Inc.),
 the Gaussian 86(TM) system (copyright 1986, Carnegie Mellon
 University), and the Gaussian 82(TM) system (copyright 1983,
 Carnegie Mellon University). Gaussian is a federally registered
 trademark of Gaussian, Inc.
  
 This software contains proprietary and confidential information,
 including trade secrets, belonging to Gaussian, Inc.
  
 This software is provided under written license and may be
 used, copied, transmitted, or stored only in accord with that
 written license.
  
 The following legend is applicable only to US Government
 contracts under FAR:
  
                    RESTRICTED RIGHTS LEGEND
  
 Use, reproduction and disclosure by the US Government is
 subject to restrictions as set forth in subparagraphs (a)
 and (c) of the Commercial Computer Software - Restricted
 Rights clause in FAR 52.227-19.
  
 Gaussian, Inc.
 340 Quinnipiac St., Bldg. 40, Wallingford CT 06492
  
  
 ---------------------------------------------------------------
 Warning -- This program may not be used in any manner that
 competes with the business of Gaussian, Inc. or will provide
 assistance to any competitor of Gaussian, Inc.  The licensee
 of this program is prohibited from giving any competitor of
 Gaussian, Inc. access to this program.  By using this program,
 the user acknowledges that Gaussian, Inc. is engaged in the
 business of creating and licensing software in the field of
 computational chemistry and represents and warrants to the
 licensee that it is not a competitor of Gaussian, Inc. and that
 it will not use this program in any manner prohibited above.
 ---------------------------------------------------------------
  

 Cite this work as:
 Gaussian 16, Revision C.02,
 M. J. Frisch, G. W. Trucks, H. B. Schlegel, G. E. Scuseria, 
 M. A. Robb, J. R. Cheeseman, G. Scalmani, V. Barone, 
 G. A. Petersson, H. Nakatsuji, X. Li, M. Caricato, A. V. Marenich, 
 J. Bloino, B. G. Janesko, R. Gomperts, B. Mennucci, H. P. Hratchian, 
 J. V. Ortiz, A. F. Izmaylov, J. L. Sonnenberg, D. Williams-Young, 
 F. Ding, F. Lipparini, F. Egidi, J. Goings, B. Peng, A. Petrone, 
 T. Henderson, D. Ranasinghe, V. G. Zakrzewski, J. Gao, N. Rega, 
 G. Zheng, W. Liang, M. Hada, M. Ehara, K. Toyota, R. Fukuda, 
 J. Hasegawa, M. Ishida, T. Nakajima, Y. Honda, O. Kitao, H. Nakai, 
 T. Vreven, K. Throssell, J. A. Montgomery, Jr., J. E. Peralta, 
 F. Ogliaro, M. J. Bearpark, J. J. Heyd, E. N. Brothers, K. N. Kudin, 
 V. N. Staroverov, T. A. Keith, R. Kobayashi, J. Normand, 
 K. Raghavachari, A. P. Rendell, J. C. Burant, S. S. Iyengar, 
 J. Tomasi, M. Cossi, J. M. Millam, M. Klene, C. Adamo, R. Cammi, 
 J. W. Ochterski, R. L. Martin, K. Morokuma, O. Farkas, 
 J. B. Foresman, and D. J. Fox, Gaussian, Inc., Wallingford CT, 2019.
 
 ******************************************
 Gaussian 16:  ES64L-G16RevC.02  7-Dec-2021
                 8-Apr-2026 
 ******************************************
 %chk=file.chk
 %nproc=12
 Will use up to   12 processors via shared memory.
 %mem=12GB
 --------------------------------------
 #p opt=addredundant B3LYP/6-31G(2df,p)
 --------------------------------------
 1/18=120,19=15,26=3,38=1/1,3;
 2/9=110,12=2,17=6,18=5,40=1/2;
 3/5=1,6=6,7=104,11=2,25=1,30=1,71=1,74=-5/1,2,3;
 4//1;
 5/5=2,38=5/2;
 6/7=2,8=2,9=2,10=2,28=1/1;
 7//1,2,3,16;
 1/18=20,19=15,26=3/3(2);
 2/9=110/2;
 99//99;
 2/9=110/2;
 3/5=1,6=6,7=104,11=2,25=1,30=1,71=1,74=-5/1,2,3;
 4/5=5,16=3,69=1/1;
 5/5=2,38=5/2;
 7//1,2,3,16;
 1/18=20,19=15,26=3/3(-5);
 2/9=110/2;
 6/7=2,8=2,9=2,10=2,19=2,28=1/1;
 99/9=1/99;
 Leave Link    1 at Wed Apr  8 17:10:48 2026, MaxMem=  1610612736 cpu:               0.1 elap:               2.4
 (Enter /leonardo/prod/opt/applications/g16/c02/binary/g16/l101.exe)
 -------------------
 Title Card Required
 -------------------
 Symbolic Z-matrix:
 Charge =  0 Multiplicity = 1
 C                    -0.64832   1.22761   0.45427 
 C                    -0.02035   0.08784  -0.34029 
 C                     1.45827  -0.08401  -0.01031 
 C                    -0.79342  -1.21496  -0.16757 
 F                    -0.1013    0.43719  -1.69364 
 H                    -0.11098   2.15405   0.26584 
 H                    -1.68517   1.36339   0.1559 
 H                    -0.61077   1.00515   1.51665 
 H                     1.89129  -0.86341  -0.63285 
 H                     1.99273   0.84422  -0.1981 
 H                     1.57691  -0.35697   1.03418 
 H                    -0.76147  -1.53145   0.87087 
 H                    -0.35733  -1.99282  -0.78988 
 H                    -1.83008  -1.07585  -0.4651 
 
 The following ModRedundant input section has been read:
 
 ITRead=  0  0  0  0  0  0  0  0  0  0  0  0  0  0
 MicOpt= -1 -1 -1 -1 -1 -1 -1 -1 -1 -1 -1 -1 -1 -1
 NAtoms=     14 NQM=       14 NQMF=       0 NMMI=      0 NMMIF=      0
                NMic=       0 NMicF=      0.
                    Isotopes and Nuclear Properties:
 (Nuclear quadrupole moments (NQMom) in fm**2, nuclear magnetic moments (NMagM)
  in nuclear magnetons)

  Atom         1           2           3           4           5           6           7           8           9          10
 IAtWgt=          12          12          12          12          19           1           1           1           1           1
 AtmWgt=  12.0000000  12.0000000  12.0000000  12.0000000  18.9984032   1.0078250   1.0078250   1.0078250   1.0078250   1.0078250
 NucSpn=           0           0           0           0           1           1           1           1           1           1
 AtZEff=  -0.0000000  -0.0000000  -0.0000000  -0.0000000  -0.0000000  -0.0000000  -0.0000000  -0.0000000  -0.0000000  -0.0000000
 NQMom=    0.0000000   0.0000000   0.0000000   0.0000000   0.0000000   0.0000000   0.0000000   0.0000000   0.0000000   0.0000000
 NMagM=    0.0000000   0.0000000   0.0000000   0.0000000   2.6288670   2.7928460   2.7928460   2.7928460   2.7928460   2.7928460
 AtZNuc=   6.0000000   6.0000000   6.0000000   6.0000000   9.0000000   1.0000000   1.0000000   1.0000000   1.0000000   1.0000000

  Atom        11          12          13          14
 IAtWgt=           1           1           1           1
 AtmWgt=   1.0078250   1.0078250   1.0078250   1.0078250
 NucSpn=           1           1           1           1
 AtZEff=  -0.0000000  -0.0000000  -0.0000000  -0.0000000
 NQMom=    0.0000000   0.0000000   0.0000000   0.0000000
 NMagM=    2.7928460   2.7928460   2.7928460   2.7928460
 AtZNuc=   1.0000000   1.0000000   1.0000000   1.0000000
 Leave Link  101 at Wed Apr  8 17:10:54 2026, MaxMem=  1610612736 cpu:               0.3 elap:               1.6
 (Enter /leonardo/prod/opt/applications/g16/c02/binary/g16/l103.exe)

 GradGradGradGradGradGradGradGradGradGradGradGradGradGradGradGradGradGrad
 Berny optimization.
 Initialization pass.
                           ----------------------------
                           !    Initial Parameters    !
                           ! (Angstroms and Degrees)  !
 --------------------------                            --------------------------
 ! Name  Definition              Value          Derivative Info.                !
 --------------------------------------------------------------------------------
 ! R1    R(1,2)                  1.5247         estimate D2E/DX2                !
 ! R2    R(1,6)                  1.0874         estimate D2E/DX2                !
 ! R3    R(1,7)                  1.0874         estimate D2E/DX2                !
 ! R4    R(1,8)                  1.0861         estimate D2E/DX2                !
 ! R5    R(2,3)                  1.5247         estimate D2E/DX2                !
 ! R6    R(2,4)                  1.5247         estimate D2E/DX2                !
 ! R7    R(2,5)                  1.4001         estimate D2E/DX2                !
 ! R8    R(3,9)                  1.0874         estimate D2E/DX2                !
 ! R9    R(3,10)                 1.0874         estimate D2E/DX2                !
 ! R10   R(3,11)                 1.0861         estimate D2E/DX2                !
 ! R11   R(4,12)                 1.0861         estimate D2E/DX2                !
 ! R12   R(4,13)                 1.0874         estimate D2E/DX2                !
 ! R13   R(4,14)                 1.0874         estimate D2E/DX2                !
 ! A1    A(2,1,6)              110.0627         estimate D2E/DX2                !
 ! A2    A(2,1,7)              110.0628         estimate D2E/DX2                !
 ! A3    A(2,1,8)              110.0229         estimate D2E/DX2                !
 ! A4    A(6,1,7)              108.4949         estimate D2E/DX2                !
 ! A5    A(6,1,8)              109.0826         estimate D2E/DX2                !
 ! A6    A(7,1,8)              109.0825         estimate D2E/DX2                !
 ! A7    A(1,2,3)              111.7698         estimate D2E/DX2                !
 ! A8    A(1,2,4)              111.7698         estimate D2E/DX2                !
 ! A9    A(1,2,5)              107.0614         estimate D2E/DX2                !
 ! A10   A(3,2,4)              111.7698         estimate D2E/DX2                !
 ! A11   A(3,2,5)              107.0614         estimate D2E/DX2                !
 ! A12   A(4,2,5)              107.0613         estimate D2E/DX2                !
 ! A13   A(2,3,9)              110.0628         estimate D2E/DX2                !
 ! A14   A(2,3,10)             110.0627         estimate D2E/DX2                !
 ! A15   A(2,3,11)             110.023          estimate D2E/DX2                !
 ! A16   A(9,3,10)             108.4948         estimate D2E/DX2                !
 ! A17   A(9,3,11)             109.0825         estimate D2E/DX2                !
 ! A18   A(10,3,11)            109.0825         estimate D2E/DX2                !
 ! A19   A(2,4,12)             110.023          estimate D2E/DX2                !
 ! A20   A(2,4,13)             110.0628         estimate D2E/DX2                !
 ! A21   A(2,4,14)             110.0627         estimate D2E/DX2                !
 ! A22   A(12,4,13)            109.0825         estimate D2E/DX2                !
 ! A23   A(12,4,14)            109.0825         estimate D2E/DX2                !
 ! A24   A(13,4,14)            108.4948         estimate D2E/DX2                !
 ! D1    D(6,1,2,3)             57.1727         estimate D2E/DX2                !
 ! D2    D(6,1,2,4)           -176.7045         estimate D2E/DX2                !
 ! D3    D(6,1,2,5)            -59.7659         estimate D2E/DX2                !
 ! D4    D(7,1,2,3)            176.7047         estimate D2E/DX2                !
 ! D5    D(7,1,2,4)            -57.1725         estimate D2E/DX2                !
 ! D6    D(7,1,2,5)             59.7661         estimate D2E/DX2                !
 ! D7    D(8,1,2,3)            -63.0613         estimate D2E/DX2                !
 ! D8    D(8,1,2,4)             63.0615         estimate D2E/DX2                !
 ! D9    D(8,1,2,5)           -179.9999         estimate D2E/DX2                !
 ! D10   D(1,2,3,9)           -176.7043         estimate D2E/DX2                !
 ! D11   D(1,2,3,10)           -57.1724         estimate D2E/DX2                !
 ! D12   D(1,2,3,11)            63.0616         estimate D2E/DX2                !
 ! D13   D(4,2,3,9)             57.1728         estimate D2E/DX2                !
 ! D14   D(4,2,3,10)           176.7048         estimate D2E/DX2                !
 ! D15   D(4,2,3,11)           -63.0613         estimate D2E/DX2                !
 ! D16   D(5,2,3,9)            -59.7657         estimate D2E/DX2                !
 ! D17   D(5,2,3,10)            59.7662         estimate D2E/DX2                !
 ! D18   D(5,2,3,11)          -179.9998         estimate D2E/DX2                !
 ! D19   D(1,2,4,12)           -63.0612         estimate D2E/DX2                !
 ! D20   D(1,2,4,13)           176.7047         estimate D2E/DX2                !
 ! D21   D(1,2,4,14)            57.1728         estimate D2E/DX2                !
 ! D22   D(3,2,4,12)            63.0616         estimate D2E/DX2                !
 ! D23   D(3,2,4,13)           -57.1724         estimate D2E/DX2                !
 ! D24   D(3,2,4,14)          -176.7043         estimate D2E/DX2                !
 ! D25   D(5,2,4,12)          -179.9998         estimate D2E/DX2                !
 ! D26   D(5,2,4,13)            59.7661         estimate D2E/DX2                !
 ! D27   D(5,2,4,14)           -59.7658         estimate D2E/DX2                !
 --------------------------------------------------------------------------------
 Trust Radius=3.00D-01 FncErr=1.00D-07 GrdErr=1.00D-06 EigMax=2.50D+02 EigMin=1.00D-04
 Number of steps in this run=     74 maximum allowed number of steps=    100.
 GradGradGradGradGradGradGradGradGradGradGradGradGradGradGradGradGradGrad

 Leave Link  103 at Wed Apr  8 17:10:56 2026, MaxMem=  1610612736 cpu:               0.0 elap:               0.5
 (Enter /leonardo/prod/opt/applications/g16/c02/binary/g16/l202.exe)
                          Input orientation:                          
 ---------------------------------------------------------------------
 Center     Atomic      Atomic             Coordinates (Angstroms)
 Number     Number       Type             X           Y           Z
 ---------------------------------------------------------------------
      1          6           0       -0.648315    1.227613    0.454274
      2          6           0       -0.020354    0.087841   -0.340286
      3          6           0        1.458268   -0.084008   -0.010307
      4          6           0       -0.793421   -1.214955   -0.167565
      5          9           0       -0.101303    0.437192   -1.693639
      6          1           0       -0.110982    2.154054    0.265840
      7          1           0       -1.685169    1.363392    0.155902
      8          1           0       -0.610773    1.005148    1.516651
      9          1           0        1.891288   -0.863410   -0.632845
     10          1           0        1.992732    0.844221   -0.198103
     11          1           0        1.576906   -0.356970    1.034184
     12          1           0       -0.761470   -1.531451    0.870873
     13          1           0       -0.357333   -1.992820   -0.789884
     14          1           0       -1.830076   -1.075848   -0.465095
 ---------------------------------------------------------------------
                    Distance matrix (angstroms):
                    1          2          3          4          5
     1  C    0.000000
     2  C    1.524710   0.000000
     3  C    2.524654   1.524710   0.000000
     4  C    2.524654   1.524711   2.524653   0.000000
     5  F    2.353193   1.400058   2.353193   2.353193   0.000000
     6  H    1.087441   2.155189   2.747312   3.464648   2.605238
     7  H    1.087441   2.155190   3.464648   2.747311   2.605241
     8  H    1.086069   2.153662   2.792632   2.792633   3.299711
     9  H    3.464648   2.155190   1.087441   2.747314   2.605239
    10  H    2.747310   2.155190   1.087441   3.464648   2.605241
    11  H    2.792634   2.153663   1.086068   2.792631   3.299712
    12  H    2.792632   2.153663   2.792634   1.086068   3.299712
    13  H    3.464648   2.155190   2.747310   1.087441   2.605241
    14  H    2.747313   2.155190   3.464648   1.087441   2.605238
                    6          7          8          9         10
     6  H    0.000000
     7  H    1.765021   0.000000
     8  H    1.770397   1.770396   0.000000
     9  H    3.731194   4.286235   3.791062   0.000000
    10  H    2.521214   3.731195   3.121621   1.765020   0.000000
    11  H    3.121628   3.791063   2.621847   1.770396   1.770396
    12  H    3.791061   3.121621   2.621845   3.121630   3.791063
    13  H    4.286234   3.731195   3.791062   2.521215   3.731194
    14  H    3.731195   2.521215   3.121628   3.731196   4.286235
                   11         12         13         14
    11  H    0.000000
    12  H    2.621846   0.000000
    13  H    3.121620   1.770396   0.000000
    14  H    3.791062   1.770396   1.765021   0.000000
 This structure is nearly, but not quite of a higher symmetry.
 Consider Symm=Loose if the higher symmetry is desired.
 Stoichiometry    C4H9F
 Framework group  C1[X(C4H9F)]
 Deg. of freedom    36
 Full point group                 C1      NOp   1
 Largest Abelian subgroup         C1      NOp   1
 Largest concise Abelian subgroup C1      NOp   1
                         Standard orientation:                         
 ---------------------------------------------------------------------
 Center     Atomic      Atomic             Coordinates (Angstroms)
 Number     Number       Type             X           Y           Z
 ---------------------------------------------------------------------
      1          6           0       -1.515906   -0.117991   -0.060199
      2          6           0        0.002542    0.000822    0.010083
      3          6           0        0.692908   -1.249001   -0.524778
      4          6           0        0.503581    1.263627   -0.682035
      5          9           0        0.343727    0.111233    1.363436
      6          1           0       -1.847331   -0.995239    0.490366
      7          1           0       -1.979692    0.761374    0.380422
      8          1           0       -1.834480   -0.206743   -1.094694
      9          1           0        1.770325   -1.158804   -0.408313
     10          1           0        0.358471   -2.124710    0.026416
     11          1           0        0.459370   -1.381291   -1.577158
     12          1           0        0.262749    1.228067   -1.740468
     13          1           0        1.581257    1.350402   -0.565362
     14          1           0        0.037046    2.141110   -0.240563
 ---------------------------------------------------------------------
 Rotational constants (GHZ):           4.7271306           4.7271298           4.5335274
 Leave Link  202 at Wed Apr  8 17:10:58 2026, MaxMem=  1610612736 cpu:               0.2 elap:               0.5
 (Enter /leonardo/prod/opt/applications/g16/c02/binary/g16/l301.exe)
 Standard basis: 6-31G(2df,p) (6D, 7F)
 Ernie: Thresh=  0.10000D-02 Tol=  0.10000D-05 Strict=F.
 There are   200 symmetry adapted cartesian basis functions of A   symmetry.
 There are   185 symmetry adapted basis functions of A   symmetry.
   185 basis functions,   283 primitive gaussians,   200 cartesian basis functions
    21 alpha electrons       21 beta electrons
       nuclear repulsion energy       198.0685401671 Hartrees.
 IExCor=  402 DFT=T Ex+Corr=B3LYP ExCW=0 ScaHFX=  0.200000
 ScaDFX=  0.800000  0.720000  1.000000  0.810000 ScalE2=  1.000000  1.000000
 IRadAn=      5 IRanWt=     -1 IRanGd=            0 ICorTp=0 IEmpDi=  4
 NAtoms=   14 NActive=   14 NUniq=   14 SFac= 1.00D+00 NAtFMM=   60 NAOKFM=F Big=F
 Integral buffers will be    131072 words long.
 Raffenetti 2 integral format.
 Two-electron integral symmetry is turned on.
 Leave Link  301 at Wed Apr  8 17:11:00 2026, MaxMem=  1610612736 cpu:               0.1 elap:               0.5
 (Enter /leonardo/prod/opt/applications/g16/c02/binary/g16/l302.exe)
 NPDir=0 NMtPBC=     1 NCelOv=     1 NCel=       1 NClECP=     1 NCelD=      1
         NCelK=      1 NCelE2=     1 NClLst=     1 CellRange=     0.0.
 One-electron integrals computed using PRISM.
 One-electron integral symmetry used in STVInt
 NBasis=   185 RedAO= T EigKep=  8.90D-04  NBF=   185
 NBsUse=   185 1.00D-06 EigRej= -1.00D+00 NBFU=   185
 Precomputing XC quadrature grid using
 IXCGrd= 4 IRadAn=           5 IRanWt=          -1 IRanGd=           0 AccXCQ= 0.00D+00.
 Generated NRdTot=       0 NPtTot=           0 NUsed=           0 NTot=          32
 NSgBfM=   200   200   200   200   200 MxSgAt=    14 MxSgA2=    14.
 Leave Link  302 at Wed Apr  8 17:11:06 2026, MaxMem=  1610612736 cpu:               1.3 elap:               2.1
 (Enter /leonardo/prod/opt/applications/g16/c02/binary/g16/l303.exe)
 DipDrv:  MaxL=1.
 Leave Link  303 at Wed Apr  8 17:11:08 2026, MaxMem=  1610612736 cpu:               0.1 elap:               0.5
 (Enter /leonardo/prod/opt/applications/g16/c02/binary/g16/l401.exe)
 ExpMin= 1.61D-01 ExpMax= 7.00D+03 ExpMxC= 1.05D+03 IAcc=3 IRadAn=         5 AccDes= 0.00D+00
 Harris functional with IExCor=  402 and IRadAn=       5 diagonalized for initial guess.
 HarFok:  IExCor=  402 AccDes= 0.00D+00 IRadAn=         5 IDoV= 1 UseB2=F ITyADJ=14
 ICtDFT=  3500011 ScaDFX=  1.000000  1.000000  1.000000  1.000000
 FoFCou: FMM=F IPFlag=           0 FMFlag=      100000 FMFlg1=           0
         NFxFlg=           0 DoJE=T BraDBF=F KetDBF=T FulRan=T
         wScrn=  0.000000 ICntrl=       500 IOpCl=  0 I1Cent=   200000004 NGrid=           0
         NMat0=    1 NMatS0=      1 NMatT0=    0 NMatD0=    1 NMtDS0=    0 NMtDT0=    0
 Petite list used in FoFCou.
 Harris En= -257.768338222065    
 JPrj=0 DoOrth=F DoCkMO=F.
 Leave Link  401 at Wed Apr  8 17:11:11 2026, MaxMem=  1610612736 cpu:               3.8 elap:               1.4
 (Enter /leonardo/prod/opt/applications/g16/c02/binary/g16/l502.exe)
 Integral symmetry usage will be decided dynamically.
 Closed shell SCF:
 Using DIIS extrapolation, IDIIS=  1040.
 NGot=  1610612736 LenX=  1610527972 LenY=  1610487531
 Requested convergence on RMS density matrix=1.00D-08 within 128 cycles.
 Requested convergence on MAX density matrix=1.00D-06.
 Requested convergence on             energy=1.00D-06.
 No special actions if energy rises.
 Fock matrices will be formed incrementally for  20 cycles.
 Integral accuracy reduced to 1.0D-05 until final iterations.

 Cycle   1  Pass 0  IDiag  1:
 FoFJK:  IHMeth= 1 ICntrl=       0 DoSepK=F KAlg= 0 I1Cent=           0 FoldK=F
 IRaf= 990000000 NMat=       1 IRICut=       1 DoRegI=T DoRafI=F ISym2E= 0 IDoP0=0 IntGTp=1.
 FoFCou: FMM=F IPFlag=           0 FMFlag=      100000 FMFlg1=           0
         NFxFlg=           0 DoJE=F BraDBF=F KetDBF=F FulRan=T
         wScrn=  0.000000 ICntrl=         0 IOpCl=  0 I1Cent=           0 NGrid=           0
         NMat0=    1 NMatS0=      1 NMatT0=    0 NMatD0=    1 NMtDS0=    0 NMtDT0=    0
 Symmetry not used in FoFCou.
 E= -257.513835737452    
 DIIS: error= 3.01D-02 at cycle   1 NSaved=   1.
 NSaved= 1 IEnMin= 1 EnMin= -257.513835737452     IErMin= 1 ErrMin= 3.01D-02
 ErrMax= 3.01D-02  0.00D+00 EMaxC= 1.00D-01 BMatC= 1.98D-01 BMatP= 1.98D-01
 IDIUse=3 WtCom= 6.99D-01 WtEn= 3.01D-01
 Coeff-Com:  0.100D+01
 Coeff-En:   0.100D+01
 Coeff:      0.100D+01
 Gap=     0.379 Goal=   None    Shift=    0.000
 GapD=    0.379 DampG=1.000 DampE=0.500 DampFc=0.5000 IDamp=-1.
 Damping current iteration by 5.00D-01
 RMSDP=4.91D-03 MaxDP=1.32D-01              OVMax= 1.70D-01

 Cycle   2  Pass 0  IDiag  1:
 RMSU=  2.42D-03    CP:  9.74D-01
 E= -257.609025549110     Delta-E=       -0.095189811658 Rises=F Damp=T
 DIIS: error= 4.52D-03 at cycle   2 NSaved=   2.
 NSaved= 2 IEnMin= 2 EnMin= -257.609025549110     IErMin= 2 ErrMin= 4.52D-03
 ErrMax= 4.52D-03  0.00D+00 EMaxC= 1.00D-01 BMatC= 6.01D-03 BMatP= 1.98D-01
 IDIUse=3 WtCom= 9.55D-01 WtEn= 4.52D-02
 Coeff-Com:  0.456D-01 0.954D+00
 Coeff-En:   0.724D-01 0.928D+00
 Coeff:      0.468D-01 0.953D+00
 Gap=     0.391 Goal=   None    Shift=    0.000
 RMSDP=6.60D-04 MaxDP=1.84D-02 DE=-9.52D-02 OVMax= 9.21D-02

 Cycle   3  Pass 0  IDiag  1:
 RMSU=  6.40D-04    CP:  9.71D-01  9.36D-01
 E= -257.715743369288     Delta-E=       -0.106717820178 Rises=F Damp=F
 DIIS: error= 1.00D-03 at cycle   3 NSaved=   3.
 NSaved= 3 IEnMin= 3 EnMin= -257.715743369288     IErMin= 3 ErrMin= 1.00D-03
 ErrMax= 1.00D-03  0.00D+00 EMaxC= 1.00D-01 BMatC= 2.62D-04 BMatP= 6.01D-03
 IDIUse=3 WtCom= 9.90D-01 WtEn= 1.00D-02
 Coeff-Com: -0.277D-02 0.106D+00 0.897D+00
 Coeff-En:   0.000D+00 0.000D+00 0.100D+01
 Coeff:     -0.274D-02 0.105D+00 0.898D+00
 Gap=     0.392 Goal=   None    Shift=    0.000
 RMSDP=1.12D-04 MaxDP=2.69D-03 DE=-1.07D-01 OVMax= 5.77D-03

 Cycle   4  Pass 0  IDiag  1:
 RMSU=  9.85D-05    CP:  9.71D-01  9.51D-01  9.41D-01
 E= -257.715857366337     Delta-E=       -0.000113997048 Rises=F Damp=F
 DIIS: error= 8.38D-04 at cycle   4 NSaved=   4.
 NSaved= 4 IEnMin= 4 EnMin= -257.715857366337     IErMin= 4 ErrMin= 8.38D-04
 ErrMax= 8.38D-04  0.00D+00 EMaxC= 1.00D-01 BMatC= 1.50D-04 BMatP= 2.62D-04
 IDIUse=3 WtCom= 9.92D-01 WtEn= 8.38D-03
 Coeff-Com: -0.227D-02 0.246D-01 0.440D+00 0.538D+00
 Coeff-En:   0.000D+00 0.000D+00 0.310D+00 0.690D+00
 Coeff:     -0.225D-02 0.244D-01 0.439D+00 0.539D+00
 Gap=     0.392 Goal=   None    Shift=    0.000
 RMSDP=6.29D-05 MaxDP=2.56D-03 DE=-1.14D-04 OVMax= 3.11D-03

 Cycle   5  Pass 0  IDiag  1:
 RMSU=  3.85D-05    CP:  9.71D-01  9.45D-01  9.48D-01  5.18D-01
 E= -257.715964869871     Delta-E=       -0.000107503535 Rises=F Damp=F
 DIIS: error= 3.38D-04 at cycle   5 NSaved=   5.
 NSaved= 5 IEnMin= 5 EnMin= -257.715964869871     IErMin= 5 ErrMin= 3.38D-04
 ErrMax= 3.38D-04  0.00D+00 EMaxC= 1.00D-01 BMatC= 1.89D-05 BMatP= 1.50D-04
 IDIUse=3 WtCom= 9.97D-01 WtEn= 3.38D-03
 Coeff-Com: -0.339D-03 0.135D-03 0.131D+00 0.296D+00 0.574D+00
 Coeff-En:   0.000D+00 0.000D+00 0.000D+00 0.331D-01 0.967D+00
 Coeff:     -0.338D-03 0.135D-03 0.131D+00 0.295D+00 0.575D+00
 Gap=     0.392 Goal=   None    Shift=    0.000
 RMSDP=1.83D-05 MaxDP=8.19D-04 DE=-1.08D-04 OVMax= 7.19D-04

 Cycle   6  Pass 0  IDiag  1:
 RMSU=  6.26D-06    CP:  9.71D-01  9.46D-01  9.53D-01  5.81D-01  5.95D-01
 E= -257.715977303109     Delta-E=       -0.000012433238 Rises=F Damp=F
 DIIS: error= 4.06D-05 at cycle   6 NSaved=   6.
 NSaved= 6 IEnMin= 6 EnMin= -257.715977303109     IErMin= 6 ErrMin= 4.06D-05
 ErrMax= 4.06D-05  0.00D+00 EMaxC= 1.00D-01 BMatC= 3.30D-07 BMatP= 1.89D-05
 IDIUse=1 WtCom= 1.00D+00 WtEn= 0.00D+00
 Coeff-Com: -0.212D-05-0.818D-03 0.413D-01 0.105D+00 0.233D+00 0.622D+00
 Coeff:     -0.212D-05-0.818D-03 0.413D-01 0.105D+00 0.233D+00 0.622D+00
 Gap=     0.392 Goal=   None    Shift=    0.000
 RMSDP=3.76D-06 MaxDP=1.12D-04 DE=-1.24D-05 OVMax= 1.15D-04

 Initial convergence to 1.0D-05 achieved.  Increase integral accuracy.
 Cycle   7  Pass 1  IDiag  1:
 E= -257.715973486514     Delta-E=        0.000003816594 Rises=F Damp=F
 DIIS: error= 9.64D-06 at cycle   1 NSaved=   1.
 NSaved= 1 IEnMin= 1 EnMin= -257.715973486514     IErMin= 1 ErrMin= 9.64D-06
 ErrMax= 9.64D-06  0.00D+00 EMaxC= 1.00D-01 BMatC= 2.49D-08 BMatP= 2.49D-08
 IDIUse=1 WtCom= 1.00D+00 WtEn= 0.00D+00
 Coeff-Com:  0.100D+01
 Coeff:      0.100D+01
 Gap=     0.392 Goal=   None    Shift=    0.000
 RMSDP=3.76D-06 MaxDP=1.12D-04 DE= 3.82D-06 OVMax= 7.17D-05

 Cycle   8  Pass 1  IDiag  1:
 RMSU=  2.36D-06    CP:  1.00D+00
 E= -257.715973479419     Delta-E=        0.000000007095 Rises=F Damp=F
 DIIS: error= 1.19D-05 at cycle   2 NSaved=   2.
 NSaved= 2 IEnMin= 1 EnMin= -257.715973486514     IErMin= 1 ErrMin= 9.64D-06
 ErrMax= 1.19D-05  0.00D+00 EMaxC= 1.00D-01 BMatC= 3.19D-08 BMatP= 2.49D-08
 IDIUse=1 WtCom= 1.00D+00 WtEn= 0.00D+00
 Coeff-Com:  0.532D+00 0.468D+00
 Coeff:      0.532D+00 0.468D+00
 Gap=     0.392 Goal=   None    Shift=    0.000
 RMSDP=1.20D-06 MaxDP=3.88D-05 DE= 7.10D-09 OVMax= 3.86D-05

 Cycle   9  Pass 1  IDiag  1:
 RMSU=  5.64D-07    CP:  1.00D+00  5.53D-01
 E= -257.715973507835     Delta-E=       -0.000000028415 Rises=F Damp=F
 DIIS: error= 7.11D-07 at cycle   3 NSaved=   3.
 NSaved= 3 IEnMin= 3 EnMin= -257.715973507835     IErMin= 3 ErrMin= 7.11D-07
 ErrMax= 7.11D-07  0.00D+00 EMaxC= 1.00D-01 BMatC= 9.02D-11 BMatP= 2.49D-08
 IDIUse=1 WtCom= 1.00D+00 WtEn= 0.00D+00
 Coeff-Com:  0.185D-01 0.552D-01 0.926D+00
 Coeff:      0.185D-01 0.552D-01 0.926D+00
 Gap=     0.392 Goal=   None    Shift=    0.000
 RMSDP=6.19D-08 MaxDP=2.24D-06 DE=-2.84D-08 OVMax= 2.52D-06

 Cycle  10  Pass 1  IDiag  1:
 RMSU=  4.25D-08    CP:  1.00D+00  5.72D-01  1.00D+00
 E= -257.715973507893     Delta-E=       -0.000000000058 Rises=F Damp=F
 DIIS: error= 5.26D-07 at cycle   4 NSaved=   4.
 NSaved= 4 IEnMin= 4 EnMin= -257.715973507893     IErMin= 4 ErrMin= 5.26D-07
 ErrMax= 5.26D-07  0.00D+00 EMaxC= 1.00D-01 BMatC= 3.69D-11 BMatP= 9.02D-11
 IDIUse=1 WtCom= 1.00D+00 WtEn= 0.00D+00
 Coeff-Com: -0.358D-02 0.189D-01 0.506D+00 0.478D+00
 Coeff:     -0.358D-02 0.189D-01 0.506D+00 0.478D+00
 Gap=     0.392 Goal=   None    Shift=    0.000
 RMSDP=2.59D-08 MaxDP=1.29D-06 DE=-5.84D-11 OVMax= 1.06D-06

 Cycle  11  Pass 1  IDiag  1:
 RMSU=  1.39D-08    CP:  1.00D+00  5.74D-01  1.00D+00  5.07D-01
 E= -257.715973507914     Delta-E=       -0.000000000021 Rises=F Damp=F
 DIIS: error= 8.88D-08 at cycle   5 NSaved=   5.
 NSaved= 5 IEnMin= 5 EnMin= -257.715973507914     IErMin= 5 ErrMin= 8.88D-08
 ErrMax= 8.88D-08  0.00D+00 EMaxC= 1.00D-01 BMatC= 1.43D-12 BMatP= 3.69D-11
 IDIUse=1 WtCom= 1.00D+00 WtEn= 0.00D+00
 Coeff-Com: -0.309D-02 0.307D-02 0.130D+00 0.214D+00 0.656D+00
 Coeff:     -0.309D-02 0.307D-02 0.130D+00 0.214D+00 0.656D+00
 Gap=     0.392 Goal=   None    Shift=    0.000
 RMSDP=5.82D-09 MaxDP=2.17D-07 DE=-2.06D-11 OVMax= 2.56D-07

 SCF Done:  E(RB3LYP) =  -257.715973508     A.U. after   11 cycles
            NFock= 11  Conv=0.58D-08     -V/T= 2.0074
 KE= 2.558351661698D+02 PE=-9.993360420409D+02 EE= 2.877163621962D+02
 Leave Link  502 at Wed Apr  8 17:11:20 2026, MaxMem=  1610612736 cpu:              50.0 elap:               7.8
 (Enter /leonardo/prod/opt/applications/g16/c02/binary/g16/l601.exe)
 Copying SCF densities to generalized density rwf, IOpCl= 0 IROHF=0.

 **********************************************************************

            Population analysis using the SCF Density.

 **********************************************************************

 Orbital symmetries:
       Occupied  (A) (A) (A) (A) (A) (A) (A) (A) (A) (A) (A) (A)
                 (A) (A) (A) (A) (A) (A) (A) (A) (A)
       Virtual   (A) (A) (A) (A) (A) (A) (A) (A) (A) (A) (A) (A)
                 (A) (A) (A) (A) (A) (A) (A) (A) (A) (A) (A) (A)
                 (A) (A) (A) (A) (A) (A) (A) (A) (A) (A) (A) (A)
                 (A) (A) (A) (A) (A) (A) (A) (A) (A) (A) (A) (A)
                 (A) (A) (A) (A) (A) (A) (A) (A) (A) (A) (A) (A)
                 (A) (A) (A) (A) (A) (A) (A) (A) (A) (A) (A) (A)
                 (A) (A) (A) (A) (A) (A) (A) (A) (A) (A) (A) (A)
                 (A) (A) (A) (A) (A) (A) (A) (A) (A) (A) (A) (A)
                 (A) (A) (A) (A) (A) (A) (A) (A) (A) (A) (A) (A)
                 (A) (A) (A) (A) (A) (A) (A) (A) (A) (A) (A) (A)
                 (A) (A) (A) (A) (A) (A) (A) (A) (A) (A) (A) (A)
                 (A) (A) (A) (A) (A) (A) (A) (A) (A) (A) (A) (A)
                 (A) (A) (A) (A) (A) (A) (A) (A) (A) (A) (A) (A)
                 (A) (A) (A) (A) (A) (A) (A) (A)
 The electronic state is 1-A.
 Alpha  occ. eigenvalues --  -24.65126 -10.25626 -10.17367 -10.17367 -10.17366
 Alpha  occ. eigenvalues --   -1.16540  -0.80017  -0.69646  -0.69646  -0.56425
 Alpha  occ. eigenvalues --   -0.47764  -0.46218  -0.46218  -0.40773  -0.40773
 Alpha  occ. eigenvalues --   -0.39097  -0.37003  -0.36873  -0.36873  -0.31090
 Alpha  occ. eigenvalues --   -0.31090
 Alpha virt. eigenvalues --    0.08100   0.10848   0.14870   0.14870   0.15881
 Alpha virt. eigenvalues --    0.15881   0.19562   0.19669   0.19669   0.21655
 Alpha virt. eigenvalues --    0.22349   0.24713   0.24713   0.44568   0.44568
 Alpha virt. eigenvalues --    0.47780   0.51348   0.51947   0.51947   0.54504
 Alpha virt. eigenvalues --    0.58286   0.58286   0.64841   0.64842   0.69293
 Alpha virt. eigenvalues --    0.72387   0.72611   0.72611   0.74949   0.74949
 Alpha virt. eigenvalues --    0.76223   0.76572   0.84622   0.84622   0.85316
 Alpha virt. eigenvalues --    0.89950   0.89950   0.92927   1.01316   1.01316
 Alpha virt. eigenvalues --    1.07711   1.07711   1.12059   1.18886   1.23258
 Alpha virt. eigenvalues --    1.23258   1.34877   1.40614   1.40685   1.40685
 Alpha virt. eigenvalues --    1.46991   1.47488   1.47489   1.55431   1.55431
 Alpha virt. eigenvalues --    1.58624   1.59006   1.59006   1.75189   1.81371
 Alpha virt. eigenvalues --    1.81371   1.81565   1.87142   1.87142   1.94190
 Alpha virt. eigenvalues --    1.94190   1.95597   1.96143   1.96143   2.06992
 Alpha virt. eigenvalues --    2.28595   2.28638   2.28638   2.31715   2.36404
 Alpha virt. eigenvalues --    2.36405   2.48997   2.48997   2.49495   2.68321
 Alpha virt. eigenvalues --    2.72946   2.75727   2.75727   2.83805   2.84146
 Alpha virt. eigenvalues --    2.84146   2.89315   2.89315   2.93435   2.93435
 Alpha virt. eigenvalues --    2.93761   2.99222   3.02992   3.02992   3.07387
 Alpha virt. eigenvalues --    3.11676   3.12195   3.12195   3.37152   3.37152
 Alpha virt. eigenvalues --    3.43276   3.43277   3.46111   3.47978   3.55286
 Alpha virt. eigenvalues --    3.55286   3.57061   3.66838   3.66838   3.71430
 Alpha virt. eigenvalues --    3.76928   3.79543   3.79543   3.80456   3.98966
 Alpha virt. eigenvalues --    3.98966   4.05033   4.18042   4.19225   4.19225
 Alpha virt. eigenvalues --    4.24397   4.24398   4.33621   4.35404   4.35404
 Alpha virt. eigenvalues --    4.42574   4.45282   4.45282   4.52994   4.52994
 Alpha virt. eigenvalues --    4.66493   4.66493   4.69003   4.71270   4.73413
 Alpha virt. eigenvalues --    4.73413   4.74799   4.74799   4.83519   4.87331
 Alpha virt. eigenvalues --    4.87331   4.89325   4.91201   4.91201   4.91871
 Alpha virt. eigenvalues --    5.03936   5.31436   5.46940   5.46940   5.50088
 Alpha virt. eigenvalues --    5.50088   5.85206   6.68327   6.69416   6.83476
 Alpha virt. eigenvalues --    6.83476   7.24735   7.30416   7.30416   9.61731
 Alpha virt. eigenvalues --   11.26855  11.86372  11.86373  12.43040
          Condensed to atoms (all electrons):
               1          2          3          4          5          6
     1  C    5.132464   0.368063  -0.065442  -0.065443  -0.037071   0.364675
     2  C    0.368063   4.265425   0.368063   0.368063   0.403761  -0.015068
     3  C   -0.065442   0.368063   5.132465  -0.065441  -0.037071  -0.006782
     4  C   -0.065443   0.368063  -0.065441   5.132462  -0.037071   0.005874
     5  F   -0.037071   0.403761  -0.037071  -0.037071   8.893414   0.000171
     6  H    0.364675  -0.015068  -0.006782   0.005874   0.000171   0.585423
     7  H    0.364674  -0.015068   0.005874  -0.006782   0.000171  -0.030831
     8  H    0.350288  -0.010855  -0.000046  -0.000045   0.001890  -0.029025
     9  H    0.005874  -0.015067   0.364674  -0.006782   0.000171  -0.000087
    10  H   -0.006782  -0.015068   0.364674   0.005874   0.000171   0.004317
    11  H   -0.000045  -0.010855   0.350289  -0.000045   0.001890   0.000332
    12  H   -0.000046  -0.010856  -0.000046   0.350289   0.001890  -0.000124
    13  H    0.005874  -0.015068  -0.006782   0.364674   0.000171  -0.000219
    14  H   -0.006782  -0.015068   0.005874   0.364674   0.000171  -0.000087
               7          8          9         10         11         12
     1  C    0.364674   0.350288   0.005874  -0.006782  -0.000045  -0.000046
     2  C   -0.015068  -0.010855  -0.015067  -0.015068  -0.010855  -0.010856
     3  C    0.005874  -0.000046   0.364674   0.364674   0.350289  -0.000046
     4  C   -0.006782  -0.000045  -0.006782   0.005874  -0.000045   0.350289
     5  F    0.000171   0.001890   0.000171   0.000171   0.001890   0.001890
     6  H   -0.030831  -0.029025  -0.000087   0.004317   0.000332  -0.000124
     7  H    0.585423  -0.029025  -0.000219  -0.000087  -0.000124   0.000332
     8  H   -0.029025   0.600644  -0.000124   0.000332   0.000316   0.000316
     9  H   -0.000219  -0.000124   0.585423  -0.030831  -0.029025   0.000332
    10  H   -0.000087   0.000332  -0.030831   0.585423  -0.029025  -0.000124
    11  H   -0.000124   0.000316  -0.029025  -0.029025   0.600643   0.000316
    12  H    0.000332   0.000316   0.000332  -0.000124   0.000316   0.600644
    13  H   -0.000087  -0.000124   0.004317  -0.000087   0.000332  -0.029025
    14  H    0.004317   0.000332  -0.000087  -0.000219  -0.000124  -0.029025
              13         14
     1  C    0.005874  -0.006782
     2  C   -0.015068  -0.015068
     3  C   -0.006782   0.005874
     4  C    0.364674   0.364674
     5  F    0.000171   0.000171
     6  H   -0.000219  -0.000087
     7  H   -0.000087   0.004317
     8  H   -0.000124   0.000332
     9  H    0.004317  -0.000087
    10  H   -0.000087  -0.000219
    11  H    0.000332  -0.000124
    12  H   -0.029025  -0.029025
    13  H    0.585423  -0.030831
    14  H   -0.030831   0.585423
 Mulliken charges:
               1
     1  C   -0.410301
     2  C    0.349598
     3  C   -0.410304
     4  C   -0.410300
     5  F   -0.192660
     6  H    0.121432
     7  H    0.121431
     8  H    0.115126
     9  H    0.121432
    10  H    0.121432
    11  H    0.115127
    12  H    0.115126
    13  H    0.121431
    14  H    0.121431
 Sum of Mulliken charges =  -0.00000
 Mulliken charges with hydrogens summed into heavy atoms:
               1
     1  C   -0.052312
     2  C    0.349598
     3  C   -0.052314
     4  C   -0.052311
     5  F   -0.192660
 Electronic spatial extent (au):  <R**2>=            432.9066
 Charge=             -0.0000 electrons
 Dipole moment (field-independent basis, Debye):
    X=             -0.3958    Y=             -0.1281    Z=             -1.5700  Tot=              1.6242
 Quadrupole moment (field-independent basis, Debye-Ang):
   XX=            -31.2060   YY=            -31.0601   ZZ=            -33.6063
   XY=             -0.0527   XZ=             -0.6462   YZ=             -0.2091
 Traceless Quadrupole moment (field-independent basis, Debye-Ang):
   XX=              0.7515   YY=              0.8974   ZZ=             -1.6489
   XY=             -0.0527   XZ=             -0.6462   YZ=             -0.2091
 Octapole moment (field-independent basis, Debye-Ang**2):
  XXX=              4.9646  YYY=              0.9460  ZZZ=              5.9433  XYY=             -0.2183
  XXY=              0.6611  XXZ=              4.0182  XZZ=             -0.9040  YZZ=             -0.3637
  YYZ=              5.2795  XYZ=             -0.1409
 Hexadecapole moment (field-independent basis, Debye-Ang**3):
 XXXX=           -202.1873 YYYY=           -205.6587 ZZZZ=           -139.5186 XXXY=              0.6381
 XXXZ=              7.5805 YYYX=              0.5692 YYYZ=              2.3752 ZZZX=              9.4266
 ZZZY=              3.0338 XXYY=            -68.0465 XXZZ=            -57.8616 YYZZ=            -58.7622
 XXYZ=              0.8595 YYXZ=              2.3637 ZZXY=              0.3730
 N-N= 1.980685401671D+02 E-N=-9.993360438073D+02  KE= 2.558351661698D+02
 No NMR shielding tensors so no spin-rotation constants.
 Leave Link  601 at Wed Apr  8 17:11:22 2026, MaxMem=  1610612736 cpu:               1.0 elap:               0.6
 (Enter /leonardo/prod/opt/applications/g16/c02/binary/g16/l701.exe)
 ... and contract with generalized density number  0.
 Compute integral first derivatives.
 Leave Link  701 at Wed Apr  8 17:11:24 2026, MaxMem=  1610612736 cpu:               1.2 elap:               0.7
 (Enter /leonardo/prod/opt/applications/g16/c02/binary/g16/l702.exe)
 L702 exits ... SP integral derivatives will be done elsewhere.
 Leave Link  702 at Wed Apr  8 17:11:26 2026, MaxMem=  1610612736 cpu:               0.0 elap:               0.5
 (Enter /leonardo/prod/opt/applications/g16/c02/binary/g16/l703.exe)
 Integral derivatives from FoFJK, PRISM(SPDF).
 Compute integral first derivatives, UseDBF=F ICtDFT=           0.
 Calling FoFJK, ICntrl=      2127 FMM=F ISym2X=0 I1Cent= 0 IOpClX= 0 NMat=1 NMatS=1 NMatT=0.
 FoFJK:  IHMeth= 1 ICntrl=    2127 DoSepK=F KAlg= 0 I1Cent=           0 FoldK=F
 IRaf=         0 NMat=       1 IRICut=       1 DoRegI=T DoRafI=F ISym2E= 0 IDoP0=0 IntGTp=1.
 FoFCou: FMM=F IPFlag=           0 FMFlag=      100000 FMFlg1=         800
         NFxFlg=           0 DoJE=F BraDBF=F KetDBF=F FulRan=T
         wScrn=  0.000000 ICntrl=      2127 IOpCl=  0 I1Cent=           0 NGrid=           0
         NMat0=    1 NMatS0=      1 NMatT0=    0 NMatD0=    1 NMtDS0=    0 NMtDT0=    0
 Symmetry not used in FoFCou.
 Leave Link  703 at Wed Apr  8 17:11:34 2026, MaxMem=  1610612736 cpu:              19.4 elap:               3.9
 (Enter /leonardo/prod/opt/applications/g16/c02/binary/g16/l716.exe)
 Dipole        =-1.55718509D-01-5.03934747D-02-6.17673999D-01
 ***** Axes restored to original set *****
 -------------------------------------------------------------------
 Center     Atomic                   Forces (Hartrees/Bohr)
 Number     Number              X              Y              Z
 -------------------------------------------------------------------
      1        6           0.001652440   -0.002687823   -0.004315147
      2        6           0.000020221   -0.000089376    0.000348604
      3        6          -0.004302799    0.001020392   -0.003004211
      4        6           0.002059931    0.004217433   -0.002558448
      5        9          -0.000077639    0.000329617   -0.001279091
      6        1           0.001830530    0.003781508    0.000174560
      7        1          -0.004121792    0.000791577   -0.000240323
      8        1          -0.000558156    0.000361958    0.005366799
      9        1           0.002230718   -0.003165331   -0.001641869
     10        1           0.002612331    0.003293637    0.000002954
     11        1           0.002179574   -0.001343376    0.004761639
     12        1          -0.000743932   -0.002810151    0.004555752
     13        1           0.001393506   -0.003582214   -0.001699076
     14        1          -0.004174934   -0.000117854   -0.000472143
 -------------------------------------------------------------------
 Cartesian Forces:  Max     0.005366799 RMS     0.002588147
 Leave Link  716 at Wed Apr  8 17:11:36 2026, MaxMem=  1610612736 cpu:               0.1 elap:               0.4
 (Enter /leonardo/prod/opt/applications/g16/c02/binary/g16/l103.exe)

 GradGradGradGradGradGradGradGradGradGradGradGradGradGradGradGradGradGrad
 Berny optimization.
 FormGI is forming the generalized inverse of G from B-inverse, IUseBI=4.
 Internal  Forces:  Max     0.005156028 RMS     0.001902336
 Search for a local minimum.
 Step number   1 out of a maximum of   74
 All quantities printed in internal units (Hartrees-Bohrs-Radians)
 RMS Force = .19023D-02 SwitMx=.10000D-02 MixMth= 1
 Mixed Optimization -- RFO/linear search
 Second derivative matrix not updated -- first step.
 ITU=  0
     Eigenvalues ---    0.00439   0.00439   0.00439   0.04101   0.05734
     Eigenvalues ---    0.05734   0.05734   0.05758   0.05758   0.05758
     Eigenvalues ---    0.07031   0.07031   0.16000   0.16000   0.16000
     Eigenvalues ---    0.16000   0.16000   0.16000   0.16000   0.16000
     Eigenvalues ---    0.16000   0.18491   0.18491   0.29917   0.29917
     Eigenvalues ---    0.29917   0.35110   0.35110   0.35110   0.35110
     Eigenvalues ---    0.35110   0.35110   0.35271   0.35271   0.35271
     Eigenvalues ---    0.45611
 RFO step:  Lambda=-7.89859121D-04 EMin= 4.39073079D-03
 Linear search not attempted -- first point.
 Iteration  1 RMS(Cart)=  0.01289760 RMS(Int)=  0.00006004
 Iteration  2 RMS(Cart)=  0.00006677 RMS(Int)=  0.00001500
 Iteration  3 RMS(Cart)=  0.00000001 RMS(Int)=  0.00001500
 ITry= 1 IFail=0 DXMaxC= 4.68D-02 DCOld= 1.00D+10 DXMaxT= 3.00D-01 DXLimC= 3.00D+00 Rises=F
 Variable       Old X    -DE/DX   Delta X   Delta X   Delta X     New X
                                 (Linear)    (Quad)   (Total)
    R1        2.88128   0.00269   0.00000   0.00896   0.00896   2.89024
    R2        2.05496   0.00410   0.00000   0.01164   0.01164   2.06660
    R3        2.05497   0.00409   0.00000   0.01164   0.01164   2.06660
    R4        2.05237   0.00516   0.00000   0.01459   0.01459   2.06696
    R5        2.88128   0.00269   0.00000   0.00895   0.00895   2.89024
    R6        2.88129   0.00268   0.00000   0.00894   0.00894   2.89023
    R7        2.64573   0.00132   0.00000   0.00290   0.00290   2.64862
    R8        2.05497   0.00410   0.00000   0.01164   0.01164   2.06661
    R9        2.05497   0.00409   0.00000   0.01164   0.01164   2.06660
   R10        2.05237   0.00516   0.00000   0.01458   0.01458   2.06696
   R11        2.05237   0.00515   0.00000   0.01458   0.01458   2.06695
   R12        2.05497   0.00409   0.00000   0.01163   0.01163   2.06660
   R13        2.05497   0.00409   0.00000   0.01163   0.01163   2.06660
    A1        1.92096   0.00067   0.00000   0.00451   0.00449   1.92545
    A2        1.92096   0.00067   0.00000   0.00451   0.00449   1.92545
    A3        1.92026   0.00191   0.00000   0.01125   0.01122   1.93149
    A4        1.89359  -0.00053   0.00000  -0.00204  -0.00206   1.89153
    A5        1.90385  -0.00140   0.00000  -0.00933  -0.00935   1.89450
    A6        1.90385  -0.00140   0.00000  -0.00934  -0.00936   1.89449
    A7        1.95075   0.00018   0.00000   0.00439   0.00435   1.95510
    A8        1.95075   0.00018   0.00000   0.00439   0.00435   1.95510
    A9        1.86857  -0.00020   0.00000  -0.00483  -0.00482   1.86376
   A10        1.95075   0.00018   0.00000   0.00436   0.00432   1.95507
   A11        1.86857  -0.00020   0.00000  -0.00483  -0.00481   1.86376
   A12        1.86857  -0.00020   0.00000  -0.00484  -0.00482   1.86375
   A13        1.92096   0.00067   0.00000   0.00452   0.00450   1.92546
   A14        1.92096   0.00067   0.00000   0.00451   0.00449   1.92545
   A15        1.92026   0.00191   0.00000   0.01122   0.01120   1.93146
   A16        1.89359  -0.00053   0.00000  -0.00203  -0.00204   1.89155
   A17        1.90385  -0.00140   0.00000  -0.00934  -0.00936   1.89448
   A18        1.90385  -0.00140   0.00000  -0.00933  -0.00935   1.89450
   A19        1.92026   0.00191   0.00000   0.01122   0.01120   1.93146
   A20        1.92096   0.00067   0.00000   0.00450   0.00448   1.92543
   A21        1.92096   0.00068   0.00000   0.00453   0.00451   1.92547
   A22        1.90385  -0.00140   0.00000  -0.00934  -0.00936   1.89449
   A23        1.90385  -0.00140   0.00000  -0.00932  -0.00935   1.89450
   A24        1.89359  -0.00053   0.00000  -0.00203  -0.00205   1.89154
    D1        0.99785  -0.00036   0.00000  -0.00795  -0.00796   0.98989
    D2       -3.08407   0.00017   0.00000   0.00475   0.00476  -3.07931
    D3       -1.04311  -0.00009   0.00000  -0.00161  -0.00160  -1.04472
    D4        3.08408  -0.00017   0.00000  -0.00483  -0.00484   3.07924
    D5       -0.99785   0.00036   0.00000   0.00788   0.00788  -0.98997
    D6        1.04312   0.00009   0.00000   0.00152   0.00152   1.04463
    D7       -1.10063  -0.00027   0.00000  -0.00640  -0.00641  -1.10703
    D8        1.10063   0.00026   0.00000   0.00631   0.00631   1.10694
    D9       -3.14159  -0.00000   0.00000  -0.00005  -0.00005   3.14154
   D10       -3.08407   0.00017   0.00000   0.00483   0.00484  -3.07923
   D11       -0.99785   0.00036   0.00000   0.00799   0.00799  -0.98986
   D12        1.10063   0.00027   0.00000   0.00641   0.00642   1.10705
   D13        0.99785  -0.00036   0.00000  -0.00789  -0.00789   0.98996
   D14        3.08408  -0.00017   0.00000  -0.00474  -0.00474   3.07934
   D15       -1.10063  -0.00027   0.00000  -0.00631  -0.00631  -1.10694
   D16       -1.04311  -0.00009   0.00000  -0.00152  -0.00152  -1.04462
   D17        1.04312   0.00009   0.00000   0.00164   0.00163   1.04475
   D18       -3.14159   0.00000   0.00000   0.00006   0.00006  -3.14153
   D19       -1.10063  -0.00027   0.00000  -0.00633  -0.00634  -1.10696
   D20        3.08408  -0.00017   0.00000  -0.00474  -0.00475   3.07933
   D21        0.99785  -0.00036   0.00000  -0.00788  -0.00789   0.98997
   D22        1.10063   0.00027   0.00000   0.00639   0.00640   1.10703
   D23       -0.99785   0.00036   0.00000   0.00798   0.00799  -0.98986
   D24       -3.08407   0.00018   0.00000   0.00484   0.00485  -3.07923
   D25       -3.14159  -0.00000   0.00000   0.00002   0.00002  -3.14157
   D26        1.04312   0.00009   0.00000   0.00162   0.00161   1.04473
   D27       -1.04311  -0.00009   0.00000  -0.00153  -0.00153  -1.04464
         Item               Value     Threshold  Converged?
 Maximum Force            0.005156     0.000450     NO 
 RMS     Force            0.001902     0.000300     NO 
 Maximum Displacement     0.046807     0.001800     NO 
 RMS     Displacement     0.012932     0.001200     NO 
 Predicted change in Energy=-3.965361D-04
 Lowest energy point so far.  Saving SCF results.
 GradGradGradGradGradGradGradGradGradGradGradGradGradGradGradGradGradGrad

 Leave Link  103 at Wed Apr  8 17:11:40 2026, MaxMem=  1610612736 cpu:               0.3 elap:               2.8
 (Enter /leonardo/prod/opt/applications/g16/c02/binary/g16/l202.exe)
                          Input orientation:                          
 ---------------------------------------------------------------------
 Center     Atomic      Atomic             Coordinates (Angstroms)
 Number     Number       Type             X           Y           Z
 ---------------------------------------------------------------------
      1          6           0       -0.651403    1.233762    0.454352
      2          6           0       -0.020130    0.086842   -0.336397
      3          6           0        1.464818   -0.083885   -0.012373
      4          6           0       -0.797167   -1.219997   -0.170326
      5          9           0       -0.101184    0.436565   -1.691233
      6          1           0       -0.112387    2.166530    0.266288
      7          1           0       -1.694329    1.372014    0.155770
      8          1           0       -0.621544    1.024997    1.527616
      9          1           0        1.902294   -0.867375   -0.637451
     10          1           0        2.004226    0.848644   -0.200489
     11          1           0        1.601675   -0.359304    1.037285
     12          1           0       -0.774644   -1.552756    0.871367
     13          1           0       -0.360101   -2.003739   -0.795368
     14          1           0       -1.840127   -1.082299   -0.469039
 ---------------------------------------------------------------------
                    Distance matrix (angstroms):
                    1          2          3          4          5
     1  C    0.000000
     2  C    1.529449   0.000000
     3  C    2.536221   1.529447   0.000000
     4  C    2.536219   1.529443   2.536193   0.000000
     5  F    2.354103   1.401591   2.354103   2.354092   0.000000
     6  H    1.093600   2.167219   2.762172   3.482545   2.612430
     7  H    1.093599   2.167219   3.482546   2.762203   2.612393
     8  H    1.093787   2.171722   2.820300   2.820257   3.313309
     9  H    3.482554   2.167228   1.093602   2.762180   2.612401
    10  H    2.762155   2.167217   1.093599   3.482526   2.612447
    11  H    2.820289   2.171704   1.093786   2.820206   3.313298
    12  H    2.820243   2.171696   2.820242   1.093782   3.313286
    13  H    3.482538   2.167202   2.762110   1.093597   2.612412
    14  H    2.762219   2.167228   3.482533   1.093598   2.612399
                    6          7          8          9         10
     6  H    0.000000
     7  H    1.773699   0.000000
     8  H    1.775750   1.775739   0.000000
     9  H    3.752367   4.310425   3.826009   0.000000
    10  H    2.536681   3.752352   3.148352   1.773710   0.000000
    11  H    3.148377   3.825987   2.664473   1.775739   1.775745
    12  H    3.825936   3.148361   2.664378   3.148376   3.825926
    13  H    4.310408   3.752404   3.825944   2.536670   3.752334
    14  H    3.752423   2.536789   3.148376   3.752369   4.310419
                   11         12         13         14
    11  H    0.000000
    12  H    2.664347   0.000000
    13  H    3.148230   1.775735   0.000000
    14  H    3.825929   1.775745   1.773702   0.000000
 Stoichiometry    C4H9F
 Framework group  C1[X(C4H9F)]
 Deg. of freedom    36
 Full point group                 C1      NOp   1
 RotChk:  IX=0 Diff= 3.67D-01
 Largest Abelian subgroup         C1      NOp   1
 Largest concise Abelian subgroup C1      NOp   1
                         Standard orientation:                         
 ---------------------------------------------------------------------
 Center     Atomic      Atomic             Coordinates (Angstroms)
 Number     Number       Type             X           Y           Z
 ---------------------------------------------------------------------
      1          6           0       -1.463033   -0.060568   -0.434923
      2          6           0       -0.000006   -0.000000    0.006777
      3          6           0        0.783973   -1.236740   -0.434879
      4          6           0        0.679080    1.297283   -0.434918
      5          9           0       -0.000021    0.000029    1.408368
      6          1           0       -1.938223   -0.967859   -0.051548
      7          1           0       -2.011599    0.804321   -0.051516
      8          1           0       -1.536985   -0.063600   -1.526203
      9          1           0        1.807284   -1.194651   -0.051437
     10          1           0        0.309185   -2.144255   -0.051535
     11          1           0        0.823661   -1.299225   -1.526157
     12          1           0        0.713389    1.362839   -1.526194
     13          1           0        1.702394    1.339849   -0.051550
     14          1           0        0.130994    2.162479   -0.051520
 ---------------------------------------------------------------------
 Rotational constants (GHZ):           4.7056533           4.7055830           4.4833323
 Leave Link  202 at Wed Apr  8 17:11:42 2026, MaxMem=  1610612736 cpu:               0.2 elap:               0.5
 (Enter /leonardo/prod/opt/applications/g16/c02/binary/g16/l301.exe)
 Standard basis: 6-31G(2df,p) (6D, 7F)
 Ernie: Thresh=  0.10000D-02 Tol=  0.10000D-05 Strict=F.
 There are   200 symmetry adapted cartesian basis functions of A   symmetry.
 There are   185 symmetry adapted basis functions of A   symmetry.
   185 basis functions,   283 primitive gaussians,   200 cartesian basis functions
    21 alpha electrons       21 beta electrons
       nuclear repulsion energy       197.3399185132 Hartrees.
 IExCor=  402 DFT=T Ex+Corr=B3LYP ExCW=0 ScaHFX=  0.200000
 ScaDFX=  0.800000  0.720000  1.000000  0.810000 ScalE2=  1.000000  1.000000
 IRadAn=      5 IRanWt=     -1 IRanGd=            0 ICorTp=0 IEmpDi=  4
 NAtoms=   14 NActive=   14 NUniq=   14 SFac= 1.00D+00 NAtFMM=   60 NAOKFM=F Big=F
 Integral buffers will be    131072 words long.
 Raffenetti 2 integral format.
 Two-electron integral symmetry is turned on.
 Leave Link  301 at Wed Apr  8 17:11:44 2026, MaxMem=  1610612736 cpu:               0.1 elap:               0.4
 (Enter /leonardo/prod/opt/applications/g16/c02/binary/g16/l302.exe)
 NPDir=0 NMtPBC=     1 NCelOv=     1 NCel=       1 NClECP=     1 NCelD=      1
         NCelK=      1 NCelE2=     1 NClLst=     1 CellRange=     0.0.
 One-electron integrals computed using PRISM.
 One-electron integral symmetry used in STVInt
 NBasis=   185 RedAO= T EigKep=  9.08D-04  NBF=   185
 NBsUse=   185 1.00D-06 EigRej= -1.00D+00 NBFU=   185
 Precomputing XC quadrature grid using
 IXCGrd= 4 IRadAn=           5 IRanWt=          -1 IRanGd=           0 AccXCQ= 0.00D+00.
 Generated NRdTot=       0 NPtTot=           0 NUsed=           0 NTot=          32
 NSgBfM=   200   200   200   200   200 MxSgAt=    14 MxSgA2=    14.
 Leave Link  302 at Wed Apr  8 17:11:46 2026, MaxMem=  1610612736 cpu:               1.0 elap:               0.6
 (Enter /leonardo/prod/opt/applications/g16/c02/binary/g16/l303.exe)
 DipDrv:  MaxL=1.
 Leave Link  303 at Wed Apr  8 17:11:47 2026, MaxMem=  1610612736 cpu:               0.2 elap:               0.4
 (Enter /leonardo/prod/opt/applications/g16/c02/binary/g16/l401.exe)
 Initial guess from the checkpoint file:  "file.chk"
 B after Tr=    -0.000000   -0.000000   -0.000000
         Rot=    0.991541   -0.038159    0.123388    0.012868 Ang= -14.92 deg.
 Guess basis will be translated and rotated to current coordinates.
 JPrj=2 DoOrth=T DoCkMO=T.
 Generating alternative initial guess.
 ExpMin= 1.61D-01 ExpMax= 7.00D+03 ExpMxC= 1.05D+03 IAcc=3 IRadAn=         5 AccDes= 0.00D+00
 Harris functional with IExCor=  402 and IRadAn=       5 diagonalized for initial guess.
 HarFok:  IExCor=  402 AccDes= 0.00D+00 IRadAn=         5 IDoV= 1 UseB2=F ITyADJ=14
 ICtDFT=  3500011 ScaDFX=  1.000000  1.000000  1.000000  1.000000
 FoFCou: FMM=F IPFlag=           0 FMFlag=      100000 FMFlg1=           0
         NFxFlg=           0 DoJE=T BraDBF=F KetDBF=T FulRan=T
         wScrn=  0.000000 ICntrl=       500 IOpCl=  0 I1Cent=   200000004 NGrid=           0
         NMat0=    1 NMatS0=      1 NMatT0=    0 NMatD0=    1 NMtDS0=    0 NMtDT0=    0
 Petite list used in FoFCou.
 Harris En= -257.763829024790    
 Leave Link  401 at Wed Apr  8 17:11:49 2026, MaxMem=  1610612736 cpu:               3.6 elap:               0.7
 (Enter /leonardo/prod/opt/applications/g16/c02/binary/g16/l502.exe)
 Integral symmetry usage will be decided dynamically.
 Closed shell SCF:
 Using DIIS extrapolation, IDIIS=  1040.
 NGot=  1610612736 LenX=  1610527972 LenY=  1610487531
 Requested convergence on RMS density matrix=1.00D-08 within 128 cycles.
 Requested convergence on MAX density matrix=1.00D-06.
 Requested convergence on             energy=1.00D-06.
 No special actions if energy rises.
 Fock matrices will be formed incrementally for  20 cycles.
 Integral accuracy reduced to 1.0D-05 until final iterations.

 Cycle   1  Pass 0  IDiag  1:
 FoFJK:  IHMeth= 1 ICntrl=       0 DoSepK=F KAlg= 0 I1Cent=           0 FoldK=F
 IRaf= 990000000 NMat=       1 IRICut=       1 DoRegI=T DoRafI=F ISym2E= 0 IDoP0=0 IntGTp=1.
 FoFCou: FMM=F IPFlag=           0 FMFlag=      100000 FMFlg1=           0
         NFxFlg=           0 DoJE=F BraDBF=F KetDBF=F FulRan=T
         wScrn=  0.000000 ICntrl=         0 IOpCl=  0 I1Cent=           0 NGrid=           0
         NMat0=    1 NMatS0=      1 NMatT0=    0 NMatD0=    1 NMtDS0=    0 NMtDT0=    0
 Symmetry not used in FoFCou.
 E= -257.716264257869    
 DIIS: error= 6.24D-04 at cycle   1 NSaved=   1.
 NSaved= 1 IEnMin= 1 EnMin= -257.716264257869     IErMin= 1 ErrMin= 6.24D-04
 ErrMax= 6.24D-04  0.00D+00 EMaxC= 1.00D-01 BMatC= 9.81D-05 BMatP= 9.81D-05
 IDIUse=3 WtCom= 9.94D-01 WtEn= 6.24D-03
 Coeff-Com:  0.100D+01
 Coeff-En:   0.100D+01
 Coeff:      0.100D+01
 Gap=     1.092 Goal=   None    Shift=    0.000
 RMSDP=7.45D-05 MaxDP=1.73D-03              OVMax= 2.78D-03

 Cycle   2  Pass 0  IDiag  1:
 RMSU=  7.42D-05    CP:  1.00D+00
 E= -257.716360942640     Delta-E=       -0.000096684772 Rises=F Damp=F
 DIIS: error= 3.84D-04 at cycle   2 NSaved=   2.
 NSaved= 2 IEnMin= 2 EnMin= -257.716360942640     IErMin= 2 ErrMin= 3.84D-04
 ErrMax= 3.84D-04  0.00D+00 EMaxC= 1.00D-01 BMatC= 2.38D-05 BMatP= 9.81D-05
 IDIUse=3 WtCom= 9.96D-01 WtEn= 3.84D-03
 Coeff-Com:  0.258D+00 0.742D+00
 Coeff-En:   0.000D+00 0.100D+01
 Coeff:      0.257D+00 0.743D+00
 Gap=     0.393 Goal=   None    Shift=    0.000
 RMSDP=3.98D-05 MaxDP=1.14D-03 DE=-9.67D-05 OVMax= 1.51D-03

 Cycle   3  Pass 0  IDiag  1:
 RMSU=  3.70D-05    CP:  1.00D+00  8.07D-01
 E= -257.716376689679     Delta-E=       -0.000015747038 Rises=F Damp=F
 DIIS: error= 2.34D-04 at cycle   3 NSaved=   3.
 NSaved= 3 IEnMin= 3 EnMin= -257.716376689679     IErMin= 3 ErrMin= 2.34D-04
 ErrMax= 2.34D-04  0.00D+00 EMaxC= 1.00D-01 BMatC= 9.14D-06 BMatP= 2.38D-05
 IDIUse=3 WtCom= 9.98D-01 WtEn= 2.34D-03
 Coeff-Com: -0.878D-02 0.380D+00 0.629D+00
 Coeff-En:   0.000D+00 0.266D+00 0.734D+00
 Coeff:     -0.876D-02 0.380D+00 0.629D+00
 Gap=     0.392 Goal=   None    Shift=    0.000
 RMSDP=1.47D-05 MaxDP=4.51D-04 DE=-1.57D-05 OVMax= 5.84D-04

 Cycle   4  Pass 0  IDiag  1:
 RMSU=  4.22D-06    CP:  1.00D+00  9.09D-01  6.80D-01
 E= -257.716385636057     Delta-E=       -0.000008946379 Rises=F Damp=F
 DIIS: error= 4.44D-05 at cycle   4 NSaved=   4.
 NSaved= 4 IEnMin= 4 EnMin= -257.716385636057     IErMin= 4 ErrMin= 4.44D-05
 ErrMax= 4.44D-05  0.00D+00 EMaxC= 1.00D-01 BMatC= 2.38D-07 BMatP= 9.14D-06
 IDIUse=1 WtCom= 1.00D+00 WtEn= 0.00D+00
 Coeff-Com: -0.766D-02 0.186D+00 0.316D+00 0.505D+00
 Coeff:     -0.766D-02 0.186D+00 0.316D+00 0.505D+00
 Gap=     0.392 Goal=   None    Shift=    0.000
 RMSDP=2.30D-06 MaxDP=1.18D-04 DE=-8.95D-06 OVMax= 1.02D-04

 Initial convergence to 1.0D-05 achieved.  Increase integral accuracy.
 Cycle   5  Pass 1  IDiag  1:
 E= -257.716372010222     Delta-E=        0.000013625835 Rises=F Damp=F
 DIIS: error= 1.17D-05 at cycle   1 NSaved=   1.
 NSaved= 1 IEnMin= 1 EnMin= -257.716372010222     IErMin= 1 ErrMin= 1.17D-05
 ErrMax= 1.17D-05  0.00D+00 EMaxC= 1.00D-01 BMatC= 2.46D-08 BMatP= 2.46D-08
 IDIUse=1 WtCom= 1.00D+00 WtEn= 0.00D+00
 Coeff-Com:  0.100D+01
 Coeff:      0.100D+01
 Gap=     0.392 Goal=   None    Shift=    0.000
 RMSDP=2.30D-06 MaxDP=1.18D-04 DE= 1.36D-05 OVMax= 6.04D-05

 Cycle   6  Pass 1  IDiag  1:
 RMSU=  2.06D-06    CP:  1.00D+00
 E= -257.716371995438     Delta-E=        0.000000014784 Rises=F Damp=F
 DIIS: error= 1.98D-05 at cycle   2 NSaved=   2.
 NSaved= 2 IEnMin= 1 EnMin= -257.716372010222     IErMin= 1 ErrMin= 1.17D-05
 ErrMax= 1.98D-05  0.00D+00 EMaxC= 1.00D-01 BMatC= 5.10D-08 BMatP= 2.46D-08
 IDIUse=1 WtCom= 1.00D+00 WtEn= 0.00D+00
 Coeff-Com:  0.595D+00 0.405D+00
 Coeff:      0.595D+00 0.405D+00
 Gap=     0.392 Goal=   None    Shift=    0.000
 RMSDP=9.01D-07 MaxDP=4.51D-05 DE= 1.48D-08 OVMax= 3.92D-05

 Cycle   7  Pass 1  IDiag  1:
 RMSU=  5.50D-07    CP:  1.00D+00  6.54D-01
 E= -257.716372027337     Delta-E=       -0.000000031899 Rises=F Damp=F
 DIIS: error= 9.85D-07 at cycle   3 NSaved=   3.
 NSaved= 3 IEnMin= 3 EnMin= -257.716372027337     IErMin= 3 ErrMin= 9.85D-07
 ErrMax= 9.85D-07  0.00D+00 EMaxC= 1.00D-01 BMatC= 1.72D-10 BMatP= 2.46D-08
 IDIUse=1 WtCom= 1.00D+00 WtEn= 0.00D+00
 Coeff-Com: -0.302D-02 0.488D-01 0.954D+00
 Coeff:     -0.302D-02 0.488D-01 0.954D+00
 Gap=     0.392 Goal=   None    Shift=    0.000
 RMSDP=7.09D-08 MaxDP=2.13D-06 DE=-3.19D-08 OVMax= 2.42D-06

 Cycle   8  Pass 1  IDiag  1:
 RMSU=  4.86D-08    CP:  1.00D+00  6.79D-01  9.95D-01
 E= -257.716372027439     Delta-E=       -0.000000000101 Rises=F Damp=F
 DIIS: error= 2.97D-07 at cycle   4 NSaved=   4.
 NSaved= 4 IEnMin= 4 EnMin= -257.716372027439     IErMin= 4 ErrMin= 2.97D-07
 ErrMax= 2.97D-07  0.00D+00 EMaxC= 1.00D-01 BMatC= 1.92D-11 BMatP= 1.72D-10
 IDIUse=1 WtCom= 1.00D+00 WtEn= 0.00D+00
 Coeff-Com: -0.104D-01 0.164D-01 0.431D+00 0.563D+00
 Coeff:     -0.104D-01 0.164D-01 0.431D+00 0.563D+00
 Gap=     0.392 Goal=   None    Shift=    0.000
 RMSDP=2.70D-08 MaxDP=7.17D-07 DE=-1.01D-10 OVMax= 9.82D-07

 Cycle   9  Pass 1  IDiag  1:
 RMSU=  1.62D-08    CP:  1.00D+00  6.82D-01  1.00D+00  5.80D-01
 E= -257.716372027459     Delta-E=       -0.000000000020 Rises=F Damp=F
 DIIS: error= 7.22D-08 at cycle   5 NSaved=   5.
 NSaved= 5 IEnMin= 5 EnMin= -257.716372027459     IErMin= 5 ErrMin= 7.22D-08
 ErrMax= 7.22D-08  0.00D+00 EMaxC= 1.00D-01 BMatC= 7.38D-13 BMatP= 1.92D-11
 IDIUse=1 WtCom= 1.00D+00 WtEn= 0.00D+00
 Coeff-Com: -0.318D-02 0.320D-02 0.833D-01 0.204D+00 0.713D+00
 Coeff:     -0.318D-02 0.320D-02 0.833D-01 0.204D+00 0.713D+00
 Gap=     0.392 Goal=   None    Shift=    0.000
 RMSDP=5.11D-09 MaxDP=1.44D-07 DE=-2.05D-11 OVMax= 1.71D-07

 SCF Done:  E(RB3LYP) =  -257.716372027     A.U. after    9 cycles
            NFock=  9  Conv=0.51D-08     -V/T= 2.0078
 KE= 2.557258293879D+02 PE=-9.978013122883D+02 EE= 2.870191923597D+02
 Leave Link  502 at Wed Apr  8 17:11:58 2026, MaxMem=  1610612736 cpu:              41.1 elap:               7.7
 (Enter /leonardo/prod/opt/applications/g16/c02/binary/g16/l701.exe)
 ... and contract with generalized density number  0.
 Compute integral first derivatives.
 Leave Link  701 at Wed Apr  8 17:12:00 2026, MaxMem=  1610612736 cpu:               1.0 elap:               0.5
 (Enter /leonardo/prod/opt/applications/g16/c02/binary/g16/l702.exe)
 L702 exits ... SP integral derivatives will be done elsewhere.
 Leave Link  702 at Wed Apr  8 17:12:02 2026, MaxMem=  1610612736 cpu:               0.0 elap:               0.5
 (Enter /leonardo/prod/opt/applications/g16/c02/binary/g16/l703.exe)
 Integral derivatives from FoFJK, PRISM(SPDF).
 Compute integral first derivatives, UseDBF=F ICtDFT=           0.
 Calling FoFJK, ICntrl=      2127 FMM=F ISym2X=0 I1Cent= 0 IOpClX= 0 NMat=1 NMatS=1 NMatT=0.
 FoFJK:  IHMeth= 1 ICntrl=    2127 DoSepK=F KAlg= 0 I1Cent=           0 FoldK=F
 IRaf=         0 NMat=       1 IRICut=       1 DoRegI=T DoRafI=F ISym2E= 0 IDoP0=0 IntGTp=1.
 FoFCou: FMM=F IPFlag=           0 FMFlag=      100000 FMFlg1=         800
         NFxFlg=           0 DoJE=F BraDBF=F KetDBF=F FulRan=T
         wScrn=  0.000000 ICntrl=      2127 IOpCl=  0 I1Cent=           0 NGrid=           0
         NMat0=    1 NMatS0=      1 NMatT0=    0 NMatD0=    1 NMtDS0=    0 NMtDT0=    0
 Symmetry not used in FoFCou.
 Leave Link  703 at Wed Apr  8 17:12:05 2026, MaxMem=  1610612736 cpu:              20.0 elap:               2.2
 (Enter /leonardo/prod/opt/applications/g16/c02/binary/g16/l716.exe)
 Dipole        = 5.78428893D-06-1.25509115D-05-6.38876066D-01
 ***** Axes restored to original set *****
 -------------------------------------------------------------------
 Center     Atomic                   Forces (Hartrees/Bohr)
 Number     Number              X              Y              Z
 -------------------------------------------------------------------
      1        6           0.000575643   -0.001006351   -0.000919015
      2        6           0.000048208   -0.000218242    0.000829456
      3        6          -0.001380132    0.000204950   -0.000484943
      4        6           0.000705187    0.001258023   -0.000337130
      5        9          -0.000019065    0.000093429   -0.000364422
      6        1           0.000091109    0.000024568    0.000122778
      7        1          -0.000085626   -0.000069420    0.000108402
      8        1          -0.000130406    0.000221695    0.000278040
      9        1           0.000007815   -0.000125108    0.000086700
     10        1           0.000020050    0.000065568    0.000136235
     11        1           0.000327520   -0.000063454    0.000176426
     12        1          -0.000162928   -0.000313612    0.000144610
     13        1           0.000084720   -0.000089269    0.000092360
     14        1          -0.000082094    0.000017223    0.000130503
 -------------------------------------------------------------------
 Cartesian Forces:  Max     0.001380132 RMS     0.000436922
 Leave Link  716 at Wed Apr  8 17:12:07 2026, MaxMem=  1610612736 cpu:               0.1 elap:               0.4
 (Enter /leonardo/prod/opt/applications/g16/c02/binary/g16/l103.exe)

 GradGradGradGradGradGradGradGradGradGradGradGradGradGradGradGradGradGrad
 Berny optimization.
 Using GEDIIS/GDIIS optimizer.
 FormGI is forming the generalized inverse of G from B-inverse, IUseBI=4.
 Internal  Forces:  Max     0.001022195 RMS     0.000256840
 Search for a local minimum.
 Step number   2 out of a maximum of   74
 All quantities printed in internal units (Hartrees-Bohrs-Radians)
 RMS Force = .25684D-03 SwitMx=.10000D-02 MixMth= 2
 Mixed Optimization -- En-DIIS/RFO-DIIS
 Update second derivatives using D2CorX and points    1    2
 DE= -3.99D-04 DEPred=-3.97D-04 R= 1.01D+00
 TightC=F SS=  1.41D+00  RLast= 6.03D-02 DXNew= 5.0454D-01 1.8086D-01
 Trust test= 1.01D+00 RLast= 6.03D-02 DXMaxT set to 3.00D-01
 ITU=  1  0
 Use linear search instead of GDIIS.
     Eigenvalues ---    0.00439   0.00439   0.00439   0.04030   0.05652
     Eigenvalues ---    0.05652   0.05652   0.05686   0.05699   0.05699
     Eigenvalues ---    0.07072   0.07072   0.14926   0.16000   0.16000
     Eigenvalues ---    0.16000   0.16000   0.16000   0.16000   0.16000
     Eigenvalues ---    0.16069   0.18598   0.18599   0.29917   0.29917
     Eigenvalues ---    0.30477   0.35110   0.35110   0.35110   0.35110
     Eigenvalues ---    0.35110   0.35121   0.35271   0.35271   0.36582
     Eigenvalues ---    0.45547
 RFO step:  Lambda=-1.66239251D-05 EMin= 4.39073282D-03
 Quartic linear search produced a step of  0.01536.
 Iteration  1 RMS(Cart)=  0.00131730 RMS(Int)=  0.00000172
 Iteration  2 RMS(Cart)=  0.00000156 RMS(Int)=  0.00000031
 Iteration  3 RMS(Cart)=  0.00000000 RMS(Int)=  0.00000031
 ITry= 1 IFail=0 DXMaxC= 3.13D-03 DCOld= 1.00D+10 DXMaxT= 3.00D-01 DXLimC= 3.00D+00 Rises=F
 Variable       Old X    -DE/DX   Delta X   Delta X   Delta X     New X
                                 (Linear)    (Quad)   (Total)
    R1        2.89024  -0.00102   0.00014  -0.00341  -0.00327   2.88697
    R2        2.06660   0.00004   0.00018   0.00020   0.00037   2.06698
    R3        2.06660   0.00004   0.00018   0.00019   0.00037   2.06697
    R4        2.06696   0.00023   0.00022   0.00074   0.00096   2.06792
    R5        2.89024  -0.00102   0.00014  -0.00342  -0.00328   2.88696
    R6        2.89023  -0.00102   0.00014  -0.00341  -0.00327   2.88696
    R7        2.64862   0.00038   0.00004   0.00086   0.00090   2.64952
    R8        2.06661   0.00004   0.00018   0.00019   0.00037   2.06698
    R9        2.06660   0.00004   0.00018   0.00019   0.00037   2.06697
   R10        2.06696   0.00023   0.00022   0.00074   0.00096   2.06791
   R11        2.06695   0.00023   0.00022   0.00074   0.00097   2.06792
   R12        2.06660   0.00005   0.00018   0.00020   0.00038   2.06698
   R13        2.06660   0.00004   0.00018   0.00020   0.00037   2.06698
    A1        1.92545  -0.00002   0.00007   0.00000   0.00007   1.92552
    A2        1.92545  -0.00003   0.00007  -0.00008  -0.00001   1.92544
    A3        1.93149   0.00040   0.00017   0.00247   0.00264   1.93413
    A4        1.89153   0.00006  -0.00003   0.00067   0.00064   1.89217
    A5        1.89450  -0.00022  -0.00014  -0.00157  -0.00171   1.89279
    A6        1.89449  -0.00021  -0.00014  -0.00158  -0.00172   1.89276
    A7        1.95510  -0.00000   0.00007   0.00000   0.00007   1.95516
    A8        1.95510  -0.00000   0.00007  -0.00001   0.00005   1.95515
    A9        1.86376   0.00000  -0.00007   0.00000  -0.00007   1.86369
   A10        1.95507   0.00000   0.00007   0.00002   0.00008   1.95515
   A11        1.86376  -0.00000  -0.00007  -0.00002  -0.00009   1.86367
   A12        1.86375   0.00000  -0.00007   0.00001  -0.00007   1.86368
   A13        1.92546  -0.00003   0.00007  -0.00005   0.00002   1.92547
   A14        1.92545  -0.00002   0.00007  -0.00005   0.00002   1.92546
   A15        1.93146   0.00040   0.00017   0.00247   0.00265   1.93411
   A16        1.89155   0.00006  -0.00003   0.00066   0.00063   1.89217
   A17        1.89448  -0.00021  -0.00014  -0.00155  -0.00169   1.89279
   A18        1.89450  -0.00021  -0.00014  -0.00156  -0.00171   1.89279
   A19        1.93146   0.00041   0.00017   0.00250   0.00267   1.93414
   A20        1.92543  -0.00002   0.00007  -0.00004   0.00002   1.92546
   A21        1.92547  -0.00003   0.00007  -0.00006   0.00001   1.92548
   A22        1.89449  -0.00022  -0.00014  -0.00157  -0.00172   1.89277
   A23        1.89450  -0.00021  -0.00014  -0.00157  -0.00171   1.89279
   A24        1.89154   0.00006  -0.00003   0.00066   0.00062   1.89217
    D1        0.98989  -0.00002  -0.00012  -0.00033  -0.00045   0.98944
    D2       -3.07931  -0.00002   0.00007  -0.00032  -0.00025  -3.07956
    D3       -1.04472  -0.00002  -0.00002  -0.00031  -0.00034  -1.04505
    D4        3.07924   0.00002  -0.00007   0.00046   0.00038   3.07962
    D5       -0.98997   0.00002   0.00012   0.00047   0.00059  -0.98938
    D6        1.04463   0.00002   0.00002   0.00047   0.00049   1.04513
    D7       -1.10703  -0.00000  -0.00010   0.00003  -0.00007  -1.10710
    D8        1.10694  -0.00000   0.00010   0.00004   0.00014   1.10708
    D9        3.14154  -0.00000  -0.00000   0.00005   0.00005   3.14159
   D10       -3.07923  -0.00002   0.00007  -0.00035  -0.00028  -3.07951
   D11       -0.98986   0.00002   0.00012   0.00040   0.00052  -0.98934
   D12        1.10705  -0.00000   0.00010   0.00001   0.00011   1.10716
   D13        0.98996  -0.00002  -0.00012  -0.00035  -0.00047   0.98949
   D14        3.07934   0.00002  -0.00007   0.00040   0.00033   3.07966
   D15       -1.10694   0.00000  -0.00010   0.00002  -0.00008  -1.10702
   D16       -1.04462  -0.00002  -0.00002  -0.00036  -0.00038  -1.04501
   D17        1.04475   0.00002   0.00003   0.00039   0.00042   1.04517
   D18       -3.14153  -0.00000   0.00000   0.00001   0.00001  -3.14152
   D19       -1.10696   0.00000  -0.00010  -0.00011  -0.00021  -1.10717
   D20        3.07933   0.00002  -0.00007   0.00026   0.00019   3.07952
   D21        0.98997  -0.00002  -0.00012  -0.00049  -0.00061   0.98935
   D22        1.10703  -0.00000   0.00010  -0.00011  -0.00001   1.10702
   D23       -0.98986   0.00002   0.00012   0.00026   0.00039  -0.98947
   D24       -3.07923  -0.00002   0.00007  -0.00049  -0.00041  -3.07964
   D25       -3.14157  -0.00000   0.00000  -0.00012  -0.00012   3.14150
   D26        1.04473   0.00002   0.00002   0.00026   0.00028   1.04501
   D27       -1.04464  -0.00002  -0.00002  -0.00049  -0.00052  -1.04515
         Item               Value     Threshold  Converged?
 Maximum Force            0.001022     0.000450     NO 
 RMS     Force            0.000257     0.000300     YES
 Maximum Displacement     0.003128     0.001800     NO 
 RMS     Displacement     0.001318     0.001200     NO 
 Predicted change in Energy=-8.392519D-06
 Lowest energy point so far.  Saving SCF results.
 GradGradGradGradGradGradGradGradGradGradGradGradGradGradGradGradGradGrad

 Leave Link  103 at Wed Apr  8 17:12:08 2026, MaxMem=  1610612736 cpu:               0.1 elap:               0.4
 (Enter /leonardo/prod/opt/applications/g16/c02/binary/g16/l202.exe)
                          Input orientation:                          
 ---------------------------------------------------------------------
 Center     Atomic      Atomic             Coordinates (Angstroms)
 Number     Number       Type             X           Y           Z
 ---------------------------------------------------------------------
      1          6           0       -0.650680    1.232426    0.453712
      2          6           0       -0.020090    0.086741   -0.336026
      3          6           0        1.463195   -0.083765   -0.012457
      4          6           0       -0.796296   -1.218606   -0.170248
      5          9           0       -0.101135    0.436571   -1.691327
      6          1           0       -0.111381    2.165311    0.265892
      7          1           0       -1.693920    1.370359    0.155359
      8          1           0       -0.622133    1.026184    1.528018
      9          1           0        1.900651   -0.867653   -0.637392
     10          1           0        2.002612    0.849056   -0.200234
     11          1           0        1.603050   -0.359383    1.037282
     12          1           0       -0.775345   -1.553965    0.871181
     13          1           0       -0.358981   -2.002567   -0.795189
     14          1           0       -1.839550   -1.080712   -0.468570
 ---------------------------------------------------------------------
                    Distance matrix (angstroms):
                    1          2          3          4          5
     1  C    0.000000
     2  C    1.527718   0.000000
     3  C    2.533404   1.527712   0.000000
     4  C    2.533394   1.527713   2.533389   0.000000
     5  F    2.352993   1.402067   2.352973   2.352985   0.000000
     6  H    1.093798   2.165894   2.759548   3.479974   2.611390
     7  H    1.093796   2.165835   3.479944   2.759436   2.611354
     8  H    1.094296   2.172479   2.820220   2.820198   3.314101
     9  H    3.479961   2.165857   1.093797   2.759514   2.611308
    10  H    2.759452   2.165847   1.093794   3.479944   2.611371
    11  H    2.820232   2.172461   1.094293   2.820151   3.314076
    12  H    2.820247   2.172481   2.820171   1.094295   3.314097
    13  H    3.479946   2.165845   2.759492   1.093797   2.611311
    14  H    2.759461   2.165860   3.479952   1.093796   2.611393
                    6          7          8          9         10
     6  H    0.000000
     7  H    1.774429   0.000000
     8  H    1.775229   1.775211   0.000000
     9  H    3.750076   4.307910   3.826233   0.000000
    10  H    2.533529   3.750007   3.147621   1.774428   0.000000
    11  H    3.147760   3.826199   2.666843   1.775229   1.775224
    12  H    3.826256   3.147674   2.666847   3.147662   3.826158
    13  H    4.307947   3.749965   3.826208   2.533549   3.750047
    14  H    3.750023   2.533426   3.147614   3.750067   4.307926
                   11         12         13         14
    11  H    0.000000
    12  H    2.666716   0.000000
    13  H    3.147629   1.775217   0.000000
    14  H    3.826147   1.775228   1.774424   0.000000
 Stoichiometry    C4H9F
 Framework group  C1[X(C4H9F)]
 Deg. of freedom    36
 Full point group                 C1      NOp   1
 RotChk:  IX=0 Diff= 3.42D-01
 Largest Abelian subgroup         C1      NOp   1
 Largest concise Abelian subgroup C1      NOp   1
                         Standard orientation:                         
 ---------------------------------------------------------------------
 Center     Atomic      Atomic             Coordinates (Angstroms)
 Number     Number       Type             X           Y           Z
 ---------------------------------------------------------------------
      1          6           0       -1.404087   -0.409815   -0.434705
      2          6           0       -0.000001   -0.000003    0.006340
      3          6           0        1.056944   -1.011033   -0.434782
      4          6           0        0.347100    1.420876   -0.434714
      5          9           0        0.000049   -0.000038    1.408407
      6          1           0       -1.647317   -1.405026   -0.051576
      7          1           0       -2.144406    0.298352   -0.051540
      8          1           0       -1.478059   -0.431362   -1.526286
      9          1           0        2.040415   -0.724075   -0.051595
     10          1           0        0.813830   -2.006293   -0.051717
     11          1           0        1.112614   -1.064187   -1.526365
     12          1           0        0.365430    1.495714   -1.526293
     13          1           0        1.330527    1.707987   -0.051532
     14          1           0       -0.393209    2.129077   -0.051589
 ---------------------------------------------------------------------
 Rotational constants (GHZ):           4.7099857           4.7099511           4.4910536
 Leave Link  202 at Wed Apr  8 17:12:10 2026, MaxMem=  1610612736 cpu:               0.0 elap:               0.4
 (Enter /leonardo/prod/opt/applications/g16/c02/binary/g16/l301.exe)
 Standard basis: 6-31G(2df,p) (6D, 7F)
 Ernie: Thresh=  0.10000D-02 Tol=  0.10000D-05 Strict=F.
 There are   200 symmetry adapted cartesian basis functions of A   symmetry.
 There are   185 symmetry adapted basis functions of A   symmetry.
   185 basis functions,   283 primitive gaussians,   200 cartesian basis functions
    21 alpha electrons       21 beta electrons
       nuclear repulsion energy       197.4300956342 Hartrees.
 IExCor=  402 DFT=T Ex+Corr=B3LYP ExCW=0 ScaHFX=  0.200000
 ScaDFX=  0.800000  0.720000  1.000000  0.810000 ScalE2=  1.000000  1.000000
 IRadAn=      5 IRanWt=     -1 IRanGd=            0 ICorTp=0 IEmpDi=  4
 NAtoms=   14 NActive=   14 NUniq=   14 SFac= 1.00D+00 NAtFMM=   60 NAOKFM=F Big=F
 Integral buffers will be    131072 words long.
 Raffenetti 2 integral format.
 Two-electron integral symmetry is turned on.
 Leave Link  301 at Wed Apr  8 17:12:12 2026, MaxMem=  1610612736 cpu:               0.1 elap:               0.5
 (Enter /leonardo/prod/opt/applications/g16/c02/binary/g16/l302.exe)
 NPDir=0 NMtPBC=     1 NCelOv=     1 NCel=       1 NClECP=     1 NCelD=      1
         NCelK=      1 NCelE2=     1 NClLst=     1 CellRange=     0.0.
 One-electron integrals computed using PRISM.
 One-electron integral symmetry used in STVInt
 NBasis=   185 RedAO= T EigKep=  9.05D-04  NBF=   185
 NBsUse=   185 1.00D-06 EigRej= -1.00D+00 NBFU=   185
 Precomputing XC quadrature grid using
 IXCGrd= 4 IRadAn=           5 IRanWt=          -1 IRanGd=           0 AccXCQ= 0.00D+00.
 Generated NRdTot=       0 NPtTot=           0 NUsed=           0 NTot=          32
 NSgBfM=   200   200   200   200   200 MxSgAt=    14 MxSgA2=    14.
 Leave Link  302 at Wed Apr  8 17:12:14 2026, MaxMem=  1610612736 cpu:               0.8 elap:               0.5
 (Enter /leonardo/prod/opt/applications/g16/c02/binary/g16/l303.exe)
 DipDrv:  MaxL=1.
 Leave Link  303 at Wed Apr  8 17:12:16 2026, MaxMem=  1610612736 cpu:               0.1 elap:               0.5
 (Enter /leonardo/prod/opt/applications/g16/c02/binary/g16/l401.exe)
 Initial guess from the checkpoint file:  "file.chk"
 B after Tr=     0.000000   -0.000000   -0.000000
         Rot=    0.992651   -0.000019   -0.000017   -0.121015 Ang= -13.90 deg.
 Guess basis will be translated and rotated to current coordinates.
 JPrj=2 DoOrth=T DoCkMO=T.
 Leave Link  401 at Wed Apr  8 17:12:17 2026, MaxMem=  1610612736 cpu:               0.2 elap:               0.5
 (Enter /leonardo/prod/opt/applications/g16/c02/binary/g16/l502.exe)
 Integral symmetry usage will be decided dynamically.
 Closed shell SCF:
 Using DIIS extrapolation, IDIIS=  1040.
 NGot=  1610612736 LenX=  1610527972 LenY=  1610487531
 Requested convergence on RMS density matrix=1.00D-08 within 128 cycles.
 Requested convergence on MAX density matrix=1.00D-06.
 Requested convergence on             energy=1.00D-06.
 No special actions if energy rises.
 Fock matrices will be formed incrementally for  20 cycles.

 Cycle   1  Pass 1  IDiag  1:
 FoFJK:  IHMeth= 1 ICntrl=       0 DoSepK=F KAlg= 0 I1Cent=           0 FoldK=F
 IRaf= 990000000 NMat=       1 IRICut=       1 DoRegI=T DoRafI=F ISym2E= 0 IDoP0=0 IntGTp=1.
 FoFCou: FMM=F IPFlag=           0 FMFlag=      100000 FMFlg1=           0
         NFxFlg=           0 DoJE=F BraDBF=F KetDBF=F FulRan=T
         wScrn=  0.000000 ICntrl=         0 IOpCl=  0 I1Cent=           0 NGrid=           0
         NMat0=    1 NMatS0=      1 NMatT0=    0 NMatD0=    1 NMtDS0=    0 NMtDT0=    0
 Symmetry not used in FoFCou.
 E= -257.716379470310    
 DIIS: error= 1.06D-04 at cycle   1 NSaved=   1.
 NSaved= 1 IEnMin= 1 EnMin= -257.716379470310     IErMin= 1 ErrMin= 1.06D-04
 ErrMax= 1.06D-04  0.00D+00 EMaxC= 1.00D-01 BMatC= 2.46D-06 BMatP= 2.46D-06
 IDIUse=3 WtCom= 9.99D-01 WtEn= 1.06D-03
 Coeff-Com:  0.100D+01
 Coeff-En:   0.100D+01
 Coeff:      0.100D+01
 Gap=     1.094 Goal=   None    Shift=    0.000
 RMSDP=1.27D-05 MaxDP=3.35D-04              OVMax= 4.72D-04

 Cycle   2  Pass 1  IDiag  1:
 RMSU=  1.27D-05    CP:  1.00D+00
 E= -257.716382668568     Delta-E=       -0.000003198258 Rises=F Damp=F
 DIIS: error= 2.95D-05 at cycle   2 NSaved=   2.
 NSaved= 2 IEnMin= 2 EnMin= -257.716382668568     IErMin= 2 ErrMin= 2.95D-05
 ErrMax= 2.95D-05  0.00D+00 EMaxC= 1.00D-01 BMatC= 1.86D-07 BMatP= 2.46D-06
 IDIUse=1 WtCom= 1.00D+00 WtEn= 0.00D+00
 Coeff-Com:  0.763D-01 0.924D+00
 Coeff:      0.763D-01 0.924D+00
 Gap=     0.393 Goal=   None    Shift=    0.000
 RMSDP=3.62D-06 MaxDP=1.67D-04 DE=-3.20D-06 OVMax= 1.53D-04

 Cycle   3  Pass 1  IDiag  1:
 RMSU=  3.61D-06    CP:  1.00D+00  1.02D+00
 E= -257.716382618217     Delta-E=        0.000000050351 Rises=F Damp=F
 DIIS: error= 3.18D-05 at cycle   3 NSaved=   3.
 NSaved= 3 IEnMin= 2 EnMin= -257.716382668568     IErMin= 2 ErrMin= 2.95D-05
 ErrMax= 3.18D-05  0.00D+00 EMaxC= 1.00D-01 BMatC= 2.79D-07 BMatP= 1.86D-07
 IDIUse=1 WtCom= 1.00D+00 WtEn= 0.00D+00
 Coeff-Com: -0.221D-01 0.560D+00 0.462D+00
 Coeff:     -0.221D-01 0.560D+00 0.462D+00
 Gap=     0.393 Goal=   None    Shift=    0.000
 RMSDP=2.06D-06 MaxDP=9.62D-05 DE= 5.04D-08 OVMax= 9.90D-05

 Cycle   4  Pass 1  IDiag  1:
 RMSU=  6.17D-07    CP:  1.00D+00  1.04D+00  4.60D-01
 E= -257.716382811981     Delta-E=       -0.000000193764 Rises=F Damp=F
 DIIS: error= 2.88D-06 at cycle   4 NSaved=   4.
 NSaved= 4 IEnMin= 4 EnMin= -257.716382811981     IErMin= 4 ErrMin= 2.88D-06
 ErrMax= 2.88D-06  0.00D+00 EMaxC= 1.00D-01 BMatC= 2.59D-09 BMatP= 1.86D-07
 IDIUse=1 WtCom= 1.00D+00 WtEn= 0.00D+00
 Coeff-Com: -0.960D-02 0.178D+00 0.174D+00 0.658D+00
 Coeff:     -0.960D-02 0.178D+00 0.174D+00 0.658D+00
 Gap=     0.393 Goal=   None    Shift=    0.000
 RMSDP=3.60D-07 MaxDP=1.00D-05 DE=-1.94D-07 OVMax= 1.31D-05

 Cycle   5  Pass 1  IDiag  1:
 RMSU=  3.16D-07    CP:  1.00D+00  1.04D+00  4.70D-01  7.36D-01
 E= -257.716382813648     Delta-E=       -0.000000001667 Rises=F Damp=F
 DIIS: error= 1.14D-06 at cycle   5 NSaved=   5.
 NSaved= 5 IEnMin= 5 EnMin= -257.716382813648     IErMin= 5 ErrMin= 1.14D-06
 ErrMax= 1.14D-06  0.00D+00 EMaxC= 1.00D-01 BMatC= 5.26D-10 BMatP= 2.59D-09
 IDIUse=1 WtCom= 1.00D+00 WtEn= 0.00D+00
 Coeff-Com: -0.265D-02 0.274D-01 0.360D-01 0.338D+00 0.601D+00
 Coeff:     -0.265D-02 0.274D-01 0.360D-01 0.338D+00 0.601D+00
 Gap=     0.393 Goal=   None    Shift=    0.000
 RMSDP=1.28D-07 MaxDP=4.08D-06 DE=-1.67D-09 OVMax= 4.60D-06

 Cycle   6  Pass 1  IDiag  1:
 RMSU=  3.89D-08    CP:  1.00D+00  1.04D+00  4.75D-01  7.88D-01  6.36D-01
 E= -257.716382814083     Delta-E=       -0.000000000435 Rises=F Damp=F
 DIIS: error= 1.72D-07 at cycle   6 NSaved=   6.
 NSaved= 6 IEnMin= 6 EnMin= -257.716382814083     IErMin= 6 ErrMin= 1.72D-07
 ErrMax= 1.72D-07  0.00D+00 EMaxC= 1.00D-01 BMatC= 6.66D-12 BMatP= 5.26D-10
 IDIUse=1 WtCom= 1.00D+00 WtEn= 0.00D+00
 Coeff-Com: -0.377D-03 0.878D-03 0.370D-02 0.779D-01 0.178D+00 0.740D+00
 Coeff:     -0.377D-03 0.878D-03 0.370D-02 0.779D-01 0.178D+00 0.740D+00
 Gap=     0.393 Goal=   None    Shift=    0.000
 RMSDP=1.52D-08 MaxDP=3.60D-07 DE=-4.35D-10 OVMax= 4.93D-07

 Cycle   7  Pass 1  IDiag  1:
 RMSU=  8.46D-09    CP:  1.00D+00  1.04D+00  4.75D-01  7.99D-01  6.58D-01
                    CP:  7.88D-01
 E= -257.716382814088     Delta-E=       -0.000000000005 Rises=F Damp=F
 DIIS: error= 7.50D-08 at cycle   7 NSaved=   7.
 NSaved= 7 IEnMin= 7 EnMin= -257.716382814088     IErMin= 7 ErrMin= 7.50D-08
 ErrMax= 7.50D-08  0.00D+00 EMaxC= 1.00D-01 BMatC= 5.01D-13 BMatP= 6.66D-12
 IDIUse=1 WtCom= 1.00D+00 WtEn= 0.00D+00
 Coeff-Com: -0.273D-04-0.101D-02-0.930D-04 0.162D-01 0.458D-01 0.279D+00
 Coeff-Com:  0.660D+00
 Coeff:     -0.273D-04-0.101D-02-0.930D-04 0.162D-01 0.458D-01 0.279D+00
 Coeff:      0.660D+00
 Gap=     0.393 Goal=   None    Shift=    0.000
 RMSDP=5.13D-09 MaxDP=1.50D-07 DE=-5.46D-12 OVMax= 1.69D-07

 SCF Done:  E(RB3LYP) =  -257.716382814     A.U. after    7 cycles
            NFock=  7  Conv=0.51D-08     -V/T= 2.0078
 KE= 2.557299524621D+02 PE=-9.979842399481D+02 EE= 2.871078090377D+02
 Leave Link  502 at Wed Apr  8 17:12:25 2026, MaxMem=  1610612736 cpu:              43.6 elap:               6.7
 (Enter /leonardo/prod/opt/applications/g16/c02/binary/g16/l701.exe)
 ... and contract with generalized density number  0.
 Compute integral first derivatives.
 Leave Link  701 at Wed Apr  8 17:12:27 2026, MaxMem=  1610612736 cpu:               1.0 elap:               0.6
 (Enter /leonardo/prod/opt/applications/g16/c02/binary/g16/l702.exe)
 L702 exits ... SP integral derivatives will be done elsewhere.
 Leave Link  702 at Wed Apr  8 17:12:29 2026, MaxMem=  1610612736 cpu:               0.1 elap:               0.4
 (Enter /leonardo/prod/opt/applications/g16/c02/binary/g16/l703.exe)
 Integral derivatives from FoFJK, PRISM(SPDF).
 Compute integral first derivatives, UseDBF=F ICtDFT=           0.
 Calling FoFJK, ICntrl=      2127 FMM=F ISym2X=0 I1Cent= 0 IOpClX= 0 NMat=1 NMatS=1 NMatT=0.
 FoFJK:  IHMeth= 1 ICntrl=    2127 DoSepK=F KAlg= 0 I1Cent=           0 FoldK=F
 IRaf=         0 NMat=       1 IRICut=       1 DoRegI=T DoRafI=F ISym2E= 0 IDoP0=0 IntGTp=1.
 FoFCou: FMM=F IPFlag=           0 FMFlag=      100000 FMFlg1=         800
         NFxFlg=           0 DoJE=F BraDBF=F KetDBF=F FulRan=T
         wScrn=  0.000000 ICntrl=      2127 IOpCl=  0 I1Cent=           0 NGrid=           0
         NMat0=    1 NMatS0=      1 NMatT0=    0 NMatD0=    1 NMtDS0=    0 NMtDT0=    0
 Symmetry not used in FoFCou.
 Leave Link  703 at Wed Apr  8 17:12:33 2026, MaxMem=  1610612736 cpu:              22.7 elap:               3.0
 (Enter /leonardo/prod/opt/applications/g16/c02/binary/g16/l716.exe)
 Dipole        =-1.54065545D-05 2.82434872D-05-6.40579955D-01
 ***** Axes restored to original set *****
 -------------------------------------------------------------------
 Center     Atomic                   Forces (Hartrees/Bohr)
 Number     Number              X              Y              Z
 -------------------------------------------------------------------
      1        6           0.000054699   -0.000098291   -0.000226383
      2        6           0.000042536   -0.000140209    0.000638166
      3        6          -0.000174887    0.000055903   -0.000174359
      4        6           0.000078635    0.000171043   -0.000161918
      5        9          -0.000016228    0.000055179   -0.000206482
      6        1          -0.000049473   -0.000030350    0.000060580
      7        1           0.000045107    0.000020873    0.000068190
      8        1          -0.000018579    0.000049485   -0.000070780
      9        1           0.000022442    0.000034445    0.000072569
     10        1           0.000019325   -0.000067697    0.000045879
     11        1           0.000032012    0.000017719   -0.000079273
     12        1          -0.000023904   -0.000011134   -0.000083368
     13        1          -0.000049293    0.000001215    0.000068201
     14        1           0.000037608   -0.000058179    0.000048977
 -------------------------------------------------------------------
 Cartesian Forces:  Max     0.000638166 RMS     0.000131825
 Leave Link  716 at Wed Apr  8 17:12:36 2026, MaxMem=  1610612736 cpu:               0.0 elap:               1.0
 (Enter /leonardo/prod/opt/applications/g16/c02/binary/g16/l103.exe)

 GradGradGradGradGradGradGradGradGradGradGradGradGradGradGradGradGradGrad
 Berny optimization.
 Using GEDIIS/GDIIS optimizer.
 FormGI is forming the generalized inverse of G from B-inverse, IUseBI=4.
 Internal  Forces:  Max     0.000214301 RMS     0.000057230
 Search for a local minimum.
 Step number   3 out of a maximum of   74
 All quantities printed in internal units (Hartrees-Bohrs-Radians)
 RMS Force = .57230D-04 SwitMx=.10000D-02 MixMth= 2
 Mixed Optimization -- En-DIIS/RFO-DIIS
 Swapping is turned off.
 Update second derivatives using D2CorX and points    1    2    3
 DE= -1.08D-05 DEPred=-8.39D-06 R= 1.29D+00
 TightC=F SS=  1.41D+00  RLast= 8.93D-03 DXNew= 5.0454D-01 2.6791D-02
 Trust test= 1.29D+00 RLast= 8.93D-03 DXMaxT set to 3.00D-01
 ITU=  1  1  0
     Eigenvalues ---    0.00439   0.00439   0.00439   0.03903   0.05588
     Eigenvalues ---    0.05637   0.05637   0.05637   0.05695   0.05695
     Eigenvalues ---    0.07073   0.07073   0.13367   0.16000   0.16000
     Eigenvalues ---    0.16000   0.16000   0.16000   0.16000   0.16000
     Eigenvalues ---    0.16878   0.18600   0.18602   0.29846   0.29917
     Eigenvalues ---    0.30221   0.35110   0.35110   0.35110   0.35110
     Eigenvalues ---    0.35110   0.35263   0.35271   0.35275   0.36595
     Eigenvalues ---    0.45264
 En-DIIS/RFO-DIIS/Sim-DIIS IScMMF=       -3 using points:     3    2
 RFO step:  Lambda=-1.51067246D-06.
 NNeg= 0 NGDIIS= 2 SimSw=  2.50D-03 Rises=F DC= -1.08D-05 SmlDif=  1.00D-05
 NRisDI= 0 DoIntr=F SqrtH=F CThrHd= 10.0 CDAdj=  3.0
 RMS Error=  0.6006115919D-03 NUsed= 2 OKEnD=T EnDIS=F
 InvSVX:  RCond= 1.99D-05 Info=           0 Equed=N FErr=  1.87D-15 BErr=  2.78D-17
 DidBck=F Rises=F RFO-DIIS coefs:    1.24903   -0.24903
 Iteration  1 RMS(Cart)=  0.00049811 RMS(Int)=  0.00000038
 Iteration  2 RMS(Cart)=  0.00000042 RMS(Int)=  0.00000020
 ITry= 1 IFail=0 DXMaxC= 1.78D-03 DCOld= 1.00D+10 DXMaxT= 3.00D-01 DXLimC= 3.00D+00 Rises=F
 Variable       Old X    -DE/DX   Delta X   Delta X   Delta X     New X
                                 (Linear)    (Quad)   (Total)
    R1        2.88697  -0.00014  -0.00081   0.00006  -0.00075   2.88622
    R2        2.06698  -0.00006   0.00009  -0.00021  -0.00012   2.06686
    R3        2.06697  -0.00006   0.00009  -0.00021  -0.00012   2.06686
    R4        2.06792  -0.00008   0.00024  -0.00037  -0.00013   2.06779
    R5        2.88696  -0.00013  -0.00082   0.00012  -0.00070   2.88626
    R6        2.88696  -0.00012  -0.00081   0.00014  -0.00067   2.88629
    R7        2.64952   0.00021   0.00022   0.00039   0.00061   2.65013
    R8        2.06698  -0.00006   0.00009  -0.00020  -0.00011   2.06687
    R9        2.06697  -0.00006   0.00009  -0.00020  -0.00011   2.06686
   R10        2.06791  -0.00008   0.00024  -0.00035  -0.00011   2.06780
   R11        2.06792  -0.00008   0.00024  -0.00036  -0.00011   2.06780
   R12        2.06698  -0.00006   0.00009  -0.00021  -0.00012   2.06686
   R13        2.06698  -0.00006   0.00009  -0.00020  -0.00011   2.06687
    A1        1.92552   0.00006   0.00002   0.00044   0.00046   1.92598
    A2        1.92544   0.00006  -0.00000   0.00053   0.00053   1.92597
    A3        1.93413   0.00003   0.00066  -0.00033   0.00033   1.93446
    A4        1.89217  -0.00004   0.00016  -0.00025  -0.00009   1.89208
    A5        1.89279  -0.00005  -0.00043  -0.00022  -0.00065   1.89214
    A6        1.89276  -0.00005  -0.00043  -0.00019  -0.00062   1.89214
    A7        1.95516   0.00002   0.00002   0.00059   0.00060   1.95577
    A8        1.95515   0.00002   0.00001   0.00056   0.00058   1.95573
    A9        1.86369  -0.00002  -0.00002  -0.00063  -0.00065   1.86304
   A10        1.95515   0.00001   0.00002   0.00051   0.00053   1.95568
   A11        1.86367  -0.00002  -0.00002  -0.00059  -0.00061   1.86306
   A12        1.86368  -0.00002  -0.00002  -0.00063  -0.00065   1.86304
   A13        1.92547   0.00006   0.00000   0.00050   0.00050   1.92598
   A14        1.92546   0.00007   0.00000   0.00056   0.00056   1.92602
   A15        1.93411   0.00003   0.00066  -0.00033   0.00033   1.93444
   A16        1.89217  -0.00005   0.00016  -0.00027  -0.00012   1.89206
   A17        1.89279  -0.00006  -0.00042  -0.00025  -0.00068   1.89212
   A18        1.89279  -0.00006  -0.00043  -0.00023  -0.00065   1.89214
   A19        1.93414   0.00003   0.00067  -0.00033   0.00034   1.93447
   A20        1.92546   0.00006   0.00001   0.00051   0.00051   1.92597
   A21        1.92548   0.00007   0.00000   0.00054   0.00054   1.92602
   A22        1.89277  -0.00006  -0.00043  -0.00024  -0.00066   1.89211
   A23        1.89279  -0.00006  -0.00043  -0.00024  -0.00067   1.89212
   A24        1.89217  -0.00005   0.00016  -0.00026  -0.00011   1.89206
    D1        0.98944  -0.00004  -0.00011  -0.00098  -0.00109   0.98835
    D2       -3.07956   0.00002  -0.00006   0.00064   0.00058  -3.07898
    D3       -1.04505  -0.00001  -0.00008  -0.00020  -0.00029  -1.04534
    D4        3.07962  -0.00002   0.00009  -0.00067  -0.00057   3.07905
    D5       -0.98938   0.00004   0.00015   0.00095   0.00109  -0.98828
    D6        1.04513   0.00001   0.00012   0.00011   0.00023   1.04536
    D7       -1.10710  -0.00002  -0.00002  -0.00077  -0.00079  -1.10789
    D8        1.10708   0.00003   0.00003   0.00084   0.00087   1.10796
    D9        3.14159   0.00000   0.00001   0.00000   0.00001  -3.14159
   D10       -3.07951   0.00002  -0.00007   0.00047   0.00040  -3.07911
   D11       -0.98934   0.00004   0.00013   0.00080   0.00093  -0.98840
   D12        1.10716   0.00003   0.00003   0.00067   0.00070   1.10786
   D13        0.98949  -0.00004  -0.00012  -0.00118  -0.00129   0.98820
   D14        3.07966  -0.00002   0.00008  -0.00084  -0.00076   3.07890
   D15       -1.10702  -0.00003  -0.00002  -0.00097  -0.00099  -1.10802
   D16       -1.04501  -0.00001  -0.00009  -0.00033  -0.00043  -1.04543
   D17        1.04517   0.00001   0.00010   0.00000   0.00011   1.04528
   D18       -3.14152   0.00000   0.00000  -0.00013  -0.00013   3.14154
   D19       -1.10717  -0.00003  -0.00005  -0.00085  -0.00091  -1.10808
   D20        3.07952  -0.00002   0.00005  -0.00068  -0.00063   3.07889
   D21        0.98935  -0.00004  -0.00015  -0.00102  -0.00117   0.98818
   D22        1.10702   0.00003  -0.00000   0.00080   0.00080   1.10782
   D23       -0.98947   0.00004   0.00010   0.00098   0.00107  -0.98840
   D24       -3.07964   0.00002  -0.00010   0.00064   0.00053  -3.07911
   D25        3.14150   0.00000  -0.00003  -0.00001  -0.00004   3.14146
   D26        1.04501   0.00001   0.00007   0.00016   0.00023   1.04524
   D27       -1.04515  -0.00001  -0.00013  -0.00018  -0.00031  -1.04546
         Item               Value     Threshold  Converged?
 Maximum Force            0.000214     0.000450     YES
 RMS     Force            0.000057     0.000300     YES
 Maximum Displacement     0.001784     0.001800     YES
 RMS     Displacement     0.000498     0.001200     YES
 Predicted change in Energy=-7.557815D-07
 Optimization completed.
    -- Stationary point found.
                           ----------------------------
                           !   Optimized Parameters   !
                           ! (Angstroms and Degrees)  !
 --------------------------                            --------------------------
 ! Name  Definition              Value          Derivative Info.                !
 --------------------------------------------------------------------------------
 ! R1    R(1,2)                  1.5277         -DE/DX =   -0.0001              !
 ! R2    R(1,6)                  1.0938         -DE/DX =   -0.0001              !
 ! R3    R(1,7)                  1.0938         -DE/DX =   -0.0001              !
 ! R4    R(1,8)                  1.0943         -DE/DX =   -0.0001              !
 ! R5    R(2,3)                  1.5277         -DE/DX =   -0.0001              !
 ! R6    R(2,4)                  1.5277         -DE/DX =   -0.0001              !
 ! R7    R(2,5)                  1.4021         -DE/DX =    0.0002              !
 ! R8    R(3,9)                  1.0938         -DE/DX =   -0.0001              !
 ! R9    R(3,10)                 1.0938         -DE/DX =   -0.0001              !
 ! R10   R(3,11)                 1.0943         -DE/DX =   -0.0001              !
 ! R11   R(4,12)                 1.0943         -DE/DX =   -0.0001              !
 ! R12   R(4,13)                 1.0938         -DE/DX =   -0.0001              !
 ! R13   R(4,14)                 1.0938         -DE/DX =   -0.0001              !
 ! A1    A(2,1,6)              110.3239         -DE/DX =    0.0001              !
 ! A2    A(2,1,7)              110.3194         -DE/DX =    0.0001              !
 ! A3    A(2,1,8)              110.8172         -DE/DX =    0.0                 !
 ! A4    A(6,1,7)              108.4135         -DE/DX =    0.0                 !
 ! A5    A(6,1,8)              108.4488         -DE/DX =   -0.0001              !
 ! A6    A(7,1,8)              108.4474         -DE/DX =   -0.0001              !
 ! A7    A(1,2,3)              112.0227         -DE/DX =    0.0                 !
 ! A8    A(1,2,4)              112.0219         -DE/DX =    0.0                 !
 ! A9    A(1,2,5)              106.7814         -DE/DX =    0.0                 !
 ! A10   A(3,2,4)              112.022          -DE/DX =    0.0                 !
 ! A11   A(3,2,5)              106.7805         -DE/DX =    0.0                 !
 ! A12   A(4,2,5)              106.7812         -DE/DX =    0.0                 !
 ! A13   A(2,3,9)              110.3215         -DE/DX =    0.0001              !
 ! A14   A(2,3,10)             110.3208         -DE/DX =    0.0001              !
 ! A15   A(2,3,11)             110.8164         -DE/DX =    0.0                 !
 ! A16   A(9,3,10)             108.4136         -DE/DX =    0.0                 !
 ! A17   A(9,3,11)             108.4491         -DE/DX =   -0.0001              !
 ! A18   A(10,3,11)            108.4489         -DE/DX =   -0.0001              !
 ! A19   A(2,4,12)             110.8178         -DE/DX =    0.0                 !
 ! A20   A(2,4,13)             110.3206         -DE/DX =    0.0001              !
 ! A21   A(2,4,14)             110.3218         -DE/DX =    0.0001              !
 ! A22   A(12,4,13)            108.4479         -DE/DX =   -0.0001              !
 ! A23   A(12,4,14)            108.449          -DE/DX =   -0.0001              !
 ! A24   A(13,4,14)            108.4132         -DE/DX =    0.0                 !
 ! D1    D(6,1,2,3)             56.6908         -DE/DX =    0.0                 !
 ! D2    D(6,1,2,4)           -176.4457         -DE/DX =    0.0                 !
 ! D3    D(6,1,2,5)            -59.8772         -DE/DX =    0.0                 !
 ! D4    D(7,1,2,3)            176.4494         -DE/DX =    0.0                 !
 ! D5    D(7,1,2,4)            -56.6871         -DE/DX =    0.0                 !
 ! D6    D(7,1,2,5)             59.8814         -DE/DX =    0.0                 !
 ! D7    D(8,1,2,3)            -63.4323         -DE/DX =    0.0                 !
 ! D8    D(8,1,2,4)             63.4312         -DE/DX =    0.0                 !
 ! D9    D(8,1,2,5)           -180.0003         -DE/DX =    0.0                 !
 ! D10   D(1,2,3,9)           -176.443          -DE/DX =    0.0                 !
 ! D11   D(1,2,3,10)           -56.6849         -DE/DX =    0.0                 !
 ! D12   D(1,2,3,11)            63.4357         -DE/DX =    0.0                 !
 ! D13   D(4,2,3,9)             56.6936         -DE/DX =    0.0                 !
 ! D14   D(4,2,3,10)           176.4517         -DE/DX =    0.0                 !
 ! D15   D(4,2,3,11)           -63.4278         -DE/DX =    0.0                 !
 ! D16   D(5,2,3,9)            -59.8744         -DE/DX =    0.0                 !
 ! D17   D(5,2,3,10)            59.8837         -DE/DX =    0.0                 !
 ! D18   D(5,2,3,11)           180.0043         -DE/DX =    0.0                 !
 ! D19   D(1,2,4,12)           -63.4364         -DE/DX =    0.0                 !
 ! D20   D(1,2,4,13)           176.4434         -DE/DX =    0.0                 !
 ! D21   D(1,2,4,14)            56.6858         -DE/DX =    0.0                 !
 ! D22   D(3,2,4,12)            63.4274         -DE/DX =    0.0                 !
 ! D23   D(3,2,4,13)           -56.6927         -DE/DX =    0.0                 !
 ! D24   D(3,2,4,14)          -176.4503         -DE/DX =    0.0                 !
 ! D25   D(5,2,4,12)           179.9949         -DE/DX =    0.0                 !
 ! D26   D(5,2,4,13)            59.8748         -DE/DX =    0.0                 !
 ! D27   D(5,2,4,14)           -59.8828         -DE/DX =    0.0                 !
 --------------------------------------------------------------------------------
 Lowest energy point so far.  Saving SCF results.
 Largest change from initial coordinates is atom   11       0.470 Angstoms.
 GradGradGradGradGradGradGradGradGradGradGradGradGradGradGradGradGradGrad

 Leave Link  103 at Wed Apr  8 17:12:37 2026, MaxMem=  1610612736 cpu:               0.1 elap:               0.4
 (Enter /leonardo/prod/opt/applications/g16/c02/binary/g16/l202.exe)
                          Input orientation:                          
 ---------------------------------------------------------------------
 Center     Atomic      Atomic             Coordinates (Angstroms)
 Number     Number       Type             X           Y           Z
 ---------------------------------------------------------------------
      1          6           0       -0.650680    1.232426    0.453712
      2          6           0       -0.020090    0.086741   -0.336026
      3          6           0        1.463195   -0.083765   -0.012457
      4          6           0       -0.796296   -1.218606   -0.170248
      5          9           0       -0.101135    0.436571   -1.691327
      6          1           0       -0.111381    2.165311    0.265892
      7          1           0       -1.693920    1.370359    0.155359
      8          1           0       -0.622133    1.026184    1.528018
      9          1           0        1.900651   -0.867653   -0.637392
     10          1           0        2.002612    0.849056   -0.200234
     11          1           0        1.603050   -0.359383    1.037282
     12          1           0       -0.775345   -1.553965    0.871181
     13          1           0       -0.358981   -2.002567   -0.795189
     14          1           0       -1.839550   -1.080712   -0.468570
 ---------------------------------------------------------------------
                    Distance matrix (angstroms):
                    1          2          3          4          5
     1  C    0.000000
     2  C    1.527718   0.000000
     3  C    2.533404   1.527712   0.000000
     4  C    2.533394   1.527713   2.533389   0.000000
     5  F    2.352993   1.402067   2.352973   2.352985   0.000000
     6  H    1.093798   2.165894   2.759548   3.479974   2.611390
     7  H    1.093796   2.165835   3.479944   2.759436   2.611354
     8  H    1.094296   2.172479   2.820220   2.820198   3.314101
     9  H    3.479961   2.165857   1.093797   2.759514   2.611308
    10  H    2.759452   2.165847   1.093794   3.479944   2.611371
    11  H    2.820232   2.172461   1.094293   2.820151   3.314076
    12  H    2.820247   2.172481   2.820171   1.094295   3.314097
    13  H    3.479946   2.165845   2.759492   1.093797   2.611311
    14  H    2.759461   2.165860   3.479952   1.093796   2.611393
                    6          7          8          9         10
     6  H    0.000000
     7  H    1.774429   0.000000
     8  H    1.775229   1.775211   0.000000
     9  H    3.750076   4.307910   3.826233   0.000000
    10  H    2.533529   3.750007   3.147621   1.774428   0.000000
    11  H    3.147760   3.826199   2.666843   1.775229   1.775224
    12  H    3.826256   3.147674   2.666847   3.147662   3.826158
    13  H    4.307947   3.749965   3.826208   2.533549   3.750047
    14  H    3.750023   2.533426   3.147614   3.750067   4.307926
                   11         12         13         14
    11  H    0.000000
    12  H    2.666716   0.000000
    13  H    3.147629   1.775217   0.000000
    14  H    3.826147   1.775228   1.774424   0.000000
 Stoichiometry    C4H9F
 Framework group  C1[X(C4H9F)]
 Deg. of freedom    36
 Full point group                 C1      NOp   1
 RotChk:  IX=0 Diff= 1.85D-11
 Largest Abelian subgroup         C1      NOp   1
 Largest concise Abelian subgroup C1      NOp   1
                         Standard orientation:                         
 ---------------------------------------------------------------------
 Center     Atomic      Atomic             Coordinates (Angstroms)
 Number     Number       Type             X           Y           Z
 ---------------------------------------------------------------------
      1          6           0       -1.404087   -0.409815   -0.434705
      2          6           0       -0.000001   -0.000003    0.006340
      3          6           0        1.056944   -1.011033   -0.434782
      4          6           0        0.347100    1.420876   -0.434714
      5          9           0        0.000049   -0.000038    1.408407
      6          1           0       -1.647317   -1.405026   -0.051576
      7          1           0       -2.144406    0.298352   -0.051540
      8          1           0       -1.478059   -0.431362   -1.526286
      9          1           0        2.040415   -0.724075   -0.051595
     10          1           0        0.813830   -2.006293   -0.051717
     11          1           0        1.112614   -1.064187   -1.526365
     12          1           0        0.365430    1.495714   -1.526293
     13          1           0        1.330527    1.707987   -0.051532
     14          1           0       -0.393209    2.129077   -0.051589
 ---------------------------------------------------------------------
 Rotational constants (GHZ):           4.7099857           4.7099511           4.4910536
 Leave Link  202 at Wed Apr  8 17:12:40 2026, MaxMem=  1610612736 cpu:               0.1 elap:               0.3
 (Enter /leonardo/prod/opt/applications/g16/c02/binary/g16/l601.exe)
 Copying SCF densities to generalized density rwf, IOpCl= 0 IROHF=0.

 **********************************************************************

            Population analysis using the SCF Density.

 **********************************************************************

 Orbital symmetries:
       Occupied  (A) (A) (A) (A) (A) (A) (A) (A) (A) (A) (A) (A)
                 (A) (A) (A) (A) (A) (A) (A) (A) (A)
       Virtual   (A) (A) (A) (A) (A) (A) (A) (A) (A) (A) (A) (A)
                 (A) (A) (A) (A) (A) (A) (A) (A) (A) (A) (A) (A)
                 (A) (A) (A) (A) (A) (A) (A) (A) (A) (A) (A) (A)
                 (A) (A) (A) (A) (A) (A) (A) (A) (A) (A) (A) (A)
                 (A) (A) (A) (A) (A) (A) (A) (A) (A) (A) (A) (A)
                 (A) (A) (A) (A) (A) (A) (A) (A) (A) (A) (A) (A)
                 (A) (A) (A) (A) (A) (A) (A) (A) (A) (A) (A) (A)
                 (A) (A) (A) (A) (A) (A) (A) (A) (A) (A) (A) (A)
                 (A) (A) (A) (A) (A) (A) (A) (A) (A) (A) (A) (A)
                 (A) (A) (A) (A) (A) (A) (A) (A) (A) (A) (A) (A)
                 (A) (A) (A) (A) (A) (A) (A) (A) (A) (A) (A) (A)
                 (A) (A) (A) (A) (A) (A) (A) (A) (A) (A) (A) (A)
                 (A) (A) (A) (A) (A) (A) (A) (A) (A) (A) (A) (A)
                 (A) (A) (A) (A) (A) (A) (A) (A)
 The electronic state is 1-A.
 Alpha  occ. eigenvalues --  -24.65135 -10.25831 -10.17618 -10.17618 -10.17617
 Alpha  occ. eigenvalues --   -1.16492  -0.79787  -0.69480  -0.69480  -0.56418
 Alpha  occ. eigenvalues --   -0.47570  -0.46173  -0.46173  -0.40588  -0.40587
 Alpha  occ. eigenvalues --   -0.38930  -0.36913  -0.36719  -0.36719  -0.31180
 Alpha  occ. eigenvalues --   -0.31179
 Alpha virt. eigenvalues --    0.08085   0.10618   0.14702   0.14702   0.15615
 Alpha virt. eigenvalues --    0.15615   0.19285   0.19286   0.19435   0.21582
 Alpha virt. eigenvalues --    0.22091   0.24707   0.24707   0.44583   0.44583
 Alpha virt. eigenvalues --    0.47839   0.51047   0.52121   0.52121   0.54642
 Alpha virt. eigenvalues --    0.58308   0.58309   0.64612   0.64612   0.69297
 Alpha virt. eigenvalues --    0.72025   0.72347   0.72347   0.74689   0.74690
 Alpha virt. eigenvalues --    0.75841   0.76268   0.84597   0.84598   0.84838
 Alpha virt. eigenvalues --    0.89480   0.89480   0.92795   1.01307   1.01308
 Alpha virt. eigenvalues --    1.07586   1.07586   1.11628   1.18741   1.22420
 Alpha virt. eigenvalues --    1.22421   1.34555   1.40093   1.40095   1.40996
 Alpha virt. eigenvalues --    1.46705   1.47206   1.47207   1.55118   1.55119
 Alpha virt. eigenvalues --    1.58030   1.58793   1.58794   1.74016   1.80827
 Alpha virt. eigenvalues --    1.80862   1.80863   1.86747   1.86749   1.93339
 Alpha virt. eigenvalues --    1.93341   1.95409   1.95835   1.95836   2.06913
 Alpha virt. eigenvalues --    2.27721   2.27723   2.28771   2.30441   2.35621
 Alpha virt. eigenvalues --    2.35621   2.48889   2.49225   2.49226   2.66659
 Alpha virt. eigenvalues --    2.71851   2.74402   2.74403   2.82747   2.83101
 Alpha virt. eigenvalues --    2.83102   2.88631   2.88632   2.92569   2.92570
 Alpha virt. eigenvalues --    2.93454   2.97201   3.01910   3.01911   3.05705
 Alpha virt. eigenvalues --    3.11059   3.11061   3.11352   3.35872   3.35873
 Alpha virt. eigenvalues --    3.41819   3.41820   3.44592   3.47176   3.53143
 Alpha virt. eigenvalues --    3.53145   3.54619   3.64853   3.64854   3.69040
 Alpha virt. eigenvalues --    3.76664   3.79153   3.79153   3.79981   3.98637
 Alpha virt. eigenvalues --    3.98637   4.04490   4.17144   4.18351   4.18351
 Alpha virt. eigenvalues --    4.24198   4.24199   4.33357   4.35077   4.35078
 Alpha virt. eigenvalues --    4.42403   4.44938   4.44939   4.53066   4.53067
 Alpha virt. eigenvalues --    4.65704   4.65705   4.68483   4.71015   4.71036
 Alpha virt. eigenvalues --    4.71036   4.73755   4.73756   4.82972   4.86793
 Alpha virt. eigenvalues --    4.86794   4.88372   4.90299   4.90527   4.90528
 Alpha virt. eigenvalues --    5.01413   5.30725   5.40520   5.40523   5.49038
 Alpha virt. eigenvalues --    5.49039   5.80357   6.68330   6.69406   6.83218
 Alpha virt. eigenvalues --    6.83218   7.24206   7.30002   7.30002   9.61173
 Alpha virt. eigenvalues --   11.24079  11.84789  11.84789  12.42129
          Condensed to atoms (all electrons):
               1          2          3          4          5          6
     1  C    5.135626   0.367540  -0.064512  -0.064507  -0.036608   0.363882
     2  C    0.367540   4.262308   0.367545   0.367545   0.399484  -0.014694
     3  C   -0.064512   0.367545   5.135632  -0.064512  -0.036610  -0.006586
     4  C   -0.064507   0.367545  -0.064512   5.135636  -0.036608   0.005656
     5  F   -0.036608   0.399484  -0.036610  -0.036608   8.898034   0.000112
     6  H    0.363882  -0.014694  -0.006586   0.005656   0.000112   0.585201
     7  H    0.363879  -0.014695   0.005657  -0.006587   0.000112  -0.030417
     8  H    0.349763  -0.010625   0.000047   0.000047   0.001836  -0.029217
     9  H    0.005657  -0.014695   0.363881  -0.006586   0.000112  -0.000084
    10  H   -0.006587  -0.014696   0.363882   0.005657   0.000112   0.004224
    11  H    0.000048  -0.010625   0.349761   0.000046   0.001836   0.000316
    12  H    0.000048  -0.010624   0.000046   0.349762   0.001836  -0.000115
    13  H    0.005657  -0.014695  -0.006586   0.363880   0.000112  -0.000206
    14  H   -0.006588  -0.014694   0.005657   0.363880   0.000112  -0.000084
               7          8          9         10         11         12
     1  C    0.363879   0.349763   0.005657  -0.006587   0.000048   0.000048
     2  C   -0.014695  -0.010625  -0.014695  -0.014696  -0.010625  -0.010624
     3  C    0.005657   0.000047   0.363881   0.363882   0.349761   0.000046
     4  C   -0.006587   0.000047  -0.006586   0.005657   0.000046   0.349762
     5  F    0.000112   0.001836   0.000112   0.000112   0.001836   0.001836
     6  H   -0.030417  -0.029217  -0.000084   0.004224   0.000316  -0.000115
     7  H    0.585206  -0.029216  -0.000206  -0.000084  -0.000115   0.000316
     8  H   -0.029216   0.601044  -0.000115   0.000316   0.000276   0.000275
     9  H   -0.000206  -0.000115   0.585201  -0.030417  -0.029215   0.000316
    10  H   -0.000084   0.000316  -0.030417   0.585204  -0.029216  -0.000115
    11  H   -0.000115   0.000276  -0.029215  -0.029216   0.601046   0.000276
    12  H    0.000316   0.000275   0.000316  -0.000115   0.000276   0.601041
    13  H   -0.000084  -0.000115   0.004223  -0.000084   0.000316  -0.029216
    14  H    0.004224   0.000316  -0.000084  -0.000206  -0.000115  -0.029217
              13         14
     1  C    0.005657  -0.006588
     2  C   -0.014695  -0.014694
     3  C   -0.006586   0.005657
     4  C    0.363880   0.363880
     5  F    0.000112   0.000112
     6  H   -0.000206  -0.000084
     7  H   -0.000084   0.004224
     8  H   -0.000115   0.000316
     9  H    0.004223  -0.000084
    10  H   -0.000084  -0.000206
    11  H    0.000316  -0.000115
    12  H   -0.029216  -0.029217
    13  H    0.585200  -0.030417
    14  H   -0.030417   0.585203
 Mulliken charges:
               1
     1  C   -0.413299
     2  C    0.355623
     3  C   -0.413302
     4  C   -0.413309
     5  F   -0.193873
     6  H    0.122010
     7  H    0.122009
     8  H    0.115366
     9  H    0.122011
    10  H    0.122009
    11  H    0.115364
    12  H    0.115368
    13  H    0.122013
    14  H    0.122010
 Sum of Mulliken charges =  -0.00000
 Mulliken charges with hydrogens summed into heavy atoms:
               1
     1  C   -0.053914
     2  C    0.355623
     3  C   -0.053918
     4  C   -0.053918
     5  F   -0.193873
 Electronic spatial extent (au):  <R**2>=            435.5706
 Charge=             -0.0000 electrons
 Dipole moment (field-independent basis, Debye):
    X=             -0.0000    Y=              0.0001    Z=             -1.6282  Tot=              1.6282
 Quadrupole moment (field-independent basis, Debye-Ang):
   XX=            -31.0267   YY=            -31.0267   ZZ=            -33.8514
   XY=              0.0001   XZ=             -0.0001   YZ=              0.0000
 Traceless Quadrupole moment (field-independent basis, Debye-Ang):
   XX=              0.9416   YY=              0.9416   ZZ=             -1.8832
   XY=              0.0001   XZ=             -0.0001   YZ=              0.0000
 Octapole moment (field-independent basis, Debye-Ang**2):
  XXX=              0.9792  YYY=             -1.1188  ZZZ=              5.6046  XYY=             -0.9786
  XXY=              1.1182  XXZ=              5.0349  XZZ=              0.0001  YZZ=              0.0002
  YYZ=              5.0349  XYZ=             -0.0001
 Hexadecapole moment (field-independent basis, Debye-Ang**3):
 XXXX=           -208.0174 YYYY=           -208.0140 ZZZZ=           -134.2939 XXXY=              0.0002
 XXXZ=              0.1751 YYYX=              0.0005 YYYZ=             -0.1995 ZZZX=              0.0004
 ZZZY=             -0.0008 XXYY=            -69.3381 XXZZ=            -58.5509 YYZZ=            -58.5510
 XXYZ=              0.1989 YYXZ=             -0.1740 ZZXY=              0.0003
 N-N= 1.974300956342D+02 E-N=-9.979842279267D+02  KE= 2.557299524621D+02
 No NMR shielding tensors so no spin-rotation constants.
 Leave Link  601 at Wed Apr  8 17:12:42 2026, MaxMem=  1610612736 cpu:               0.8 elap:               0.9
 (Enter /leonardo/prod/opt/applications/g16/c02/binary/g16/l9999.exe)
 Unable to Open any file for archive entry.
 1\1\GINC-LRDN4964\FOpt\RB3LYP\6-31G(2df,p)\C4H9F1\MORZA000\08-Apr-2026
 \0\\#p opt=addredundant B3LYP/6-31G(2df,p)\\Title Card Required\\0,1\C
 ,-0.6506798008,1.2324262035,0.4537115159\C,-0.0200903466,0.0867407264,
 -0.3360259194\C,1.4631949021,-0.0837645009,-0.0124574211\C,-0.79629583
 4,-1.2186055059,-0.1702483975\F,-0.1011351876,0.4365711368,-1.69132726
 78\H,-0.1113805569,2.1653111631,0.2658924723\H,-1.6939196683,1.3703590
 727,0.1553587663\H,-0.6221330825,1.0261837353,1.5280175963\H,1.9006514
 232,-0.8676528549,-0.6373921203\H,2.0026124592,0.8490564633,-0.2002340
 282\H,1.6030497149,-0.3593825605,1.0372821337\H,-0.7753447409,-1.55396
 45333,0.8711814912\H,-0.3589810414,-2.0025671829,-0.7951890763\H,-1.83
 95502404,-1.0807123626,-0.4685697451\\Version=ES64L-G16RevC.02\State=1
 -A\HF=-257.7163828\RMSD=5.134e-09\RMSF=1.318e-04\Dipole=0.0370244,-0.1
 598448,0.6192104\Quadrupole=0.6929478,0.5693692,-1.262317,0.0303058,-0
 .117384,0.5065401\PG=C01 [X(C4H9F1)]\\@
 The archive entry for this job was punched.


 SCIENCE IS LONG AND LIFE IS SHORT.

                     DON MOSER IN THE FEBRUARY 1979 SMITHSONIAN
 Job cpu time:       0 days  0 hours  3 minutes 36.4 seconds.
 Elapsed time:       0 days  0 hours  0 minutes 56.9 seconds.
 File lengths (MBytes):  RWF=     28 Int=      0 D2E=      0 Chk=      4 Scr=      1
 Normal termination of Gaussian 16 at Wed Apr  8 17:12:45 2026.
