245
 energy: -360.072621237123 gnorm: 0.000519879438 xtb: 6.7.1 (6d44803)
C           16.13090433490484       -2.17157460992221       -0.26217475292301
O           15.44103902481270       -1.07802439779784        0.32331969541559
C           15.87493017619300       -0.72018751925914        1.54471204079269
O           16.81153925706997       -1.24753104117898        2.08112569519019
C           15.09929462879180        0.46094323546762        2.11937233667733
C           14.90204248885822        1.52970436377723        1.03756859071427
C           15.95706089395445        1.08020754662218        3.23380118593103
C           13.74737078044993        0.01965340367845        2.77280450164812
O           13.96221115002990       -0.57263632905173        4.02800004915830
C           12.75758779734073       -0.87320597724649        1.97066479032503
C           12.34532261590068       -0.30972594767718        0.61023466836242
C           13.20743788978740       -2.31771686845421        1.90893678760504
O           14.29252032650297       -2.67568550705331        2.30039856300968
C           12.21118582560847       -3.36915498397831        1.37932225016382
C           12.36988026320851       -4.62767543671463        2.25068716537230
C           12.63990737068815       -3.69786101396632       -0.05705274437281
C           10.78872563644608       -2.92712931606157        1.49105726437983
C            9.90240134291119       -2.78179737025926        0.51001480071205
C            8.54617864214557       -2.27832046298333        0.81047313406485
O            8.10601040267498       -2.16288850539332        1.94194376992689
N            7.81984720965522       -1.95177105234623       -0.29304504474996
C            6.62798374944197       -1.14575447240688       -0.16731557272869
C            5.65437852180544       -1.47301758861620       -1.31520690598614
O            4.45843846188089       -0.76762797298129       -1.08396715457878
C            5.39928625632058       -2.99214188997763       -1.45767267363539
C            4.81671286404768       -3.29238651142287       -2.84015889815036
C            4.48157240200433       -3.50282341170752       -0.34849794913000
C            7.03901250367185        0.36222020955041       -0.13170911934197
O            8.30734911252988        0.51774555780072        0.45368022532719
C            5.95151254521665        1.22251000845425        0.55928792649281
C            6.05743268874766        1.13994873591198        2.08287847748857
C            6.00435452103487        2.65831196997073        0.11193004956076
C            5.70626950708617        3.12767380595540       -1.09588593746739
C            5.33921340725028        2.27248429451122       -2.26962457258295
C            5.75758982259121        4.62190954620509       -1.35731384817870
O            6.59969333915742        4.93551081546376       -2.45330778816230
C            4.33768207992012        5.21048388867438       -1.59781485255602
C            4.23414357530416        6.57362886023514       -0.91280918974287
C            3.97737974859172        5.33653432027053       -3.09002999904170
C            2.65723210317418        4.67571425788868       -3.48987622974535
C            1.42868619887207        5.35712768449829       -2.88580123523514
O            1.33400029956763        6.64563698232977       -3.44606889494481
C            0.12808629316298        4.54939143053244       -3.14425333851622
C           -0.13548928339060        4.34214451367819       -4.63342242907657
C            0.17246357177979        3.21896181077082       -2.41255209321453
O            0.31271115905493        2.14745174838808       -2.98221567127320
N            0.09040747634455        3.33210328693599       -1.06617882858955
C           -0.23583889436555        2.24407127873134       -0.15303368453176
C            0.78987880698566        1.09998965115078       -0.27569496369306
C            2.20851480318816        1.64455628650148       -0.40709023231752
O            0.68754256677184        0.29156102953647        0.87818482166060
C           -1.71746041570928        1.82382349358656       -0.42155797911935
O           -2.35213554149627        3.06394049520061       -0.77439013398471
C           -3.10974864165290        3.28003960307343       -1.85751793512096
O           -3.27805611087041        4.41445084107346       -2.20826434113685
C           -3.81380071528411        2.09410107092154       -2.52318475906228
C           -2.99448069989404        1.45534374830923       -3.66639563008676
O           -2.86893507309546        2.37195261101675       -4.72007491904886
C           -3.69314049107770        0.16175670181415       -4.10035654553937
O           -4.48872632160811       -0.45203492530239       -3.45063908699416
O           -3.28983557209663       -0.20814640590400       -5.31750270863024
N           -5.07630256014481        2.54645478944932       -3.03890322955924
C           -6.30641153467177        2.15732782650886       -2.61503725236695
O           -7.31462791537917        2.54424215932453       -3.16353100152714
C           -6.28941658745939        1.20390709851780       -1.46416012316808
C           -6.20257549026516        1.58651510804555       -0.19665662665071
C           -6.16357516312088        2.98519022602930        0.24687187672708
C           -7.16740612976664        3.84502781101535        0.13343433420784
C           -8.52120840803636        3.54572533697749       -0.41966717198680
C           -9.60279092068814        3.72662553363408        0.65584974496117
C           -9.48949930897664        2.69112349019349        1.73077436331993
C          -10.50874935725700        2.10148784250558        2.33775128068841
C          -11.93621760133108        2.34967821508567        2.07901262763401
C          -12.63103441429802        1.87423569463251        1.05491706152084
C          -12.06533259805819        0.97984007895266       -0.00237628317787
C          -12.38417082509217       -0.49554994984284        0.28262209684292
C          -13.85971387237037       -0.84346808975536        0.08070084657779
C          -14.07503880952016       -2.34427507099238        0.28410960513218
C          -15.52789542093379       -2.73402153217772        0.02924286520636
C          -13.13403258088852       -3.09688930564992       -0.65837951916427
C          -11.67275619319414       -2.65187289789025       -0.47677716251010
C          -11.05529031932051       -3.23599694860090        0.80730866795490
C           -9.52362104180788       -3.10929203789628        0.91302576241878
O           -9.03227341294113       -4.07549249214257        1.83080092958266
C           -9.05730040708935       -1.69533449140625        1.33204744975641
C           -8.59283983769679       -0.91654638732157        0.10430143655655
C           -7.90981832144539       -1.69912003870758        2.36262508979314
O           -7.59696708056261       -0.32783426928517        2.63462436535774
C           -8.22421170267002       -2.39239581811460        3.66477482114351
C           -9.56827751537554       -2.05431599951769        4.24979964921479
C           -7.38949907895491       -3.16106779834808        4.35674935755185
C           -5.98630599472928       -3.67949317995094        4.16581426509911
C           -6.03055266280646       -5.20481949950386        3.99647380711218
C           -5.00994817737497       -2.95565576292778        3.21015963286588
O           -3.68129189135533       -3.37349486243306        3.51668459545767
C           -5.09303998051598       -3.08431366203042        1.69654299233521
C           -5.75663004095705       -4.26704581422783        1.06307600515865
C           -4.47506955395288       -2.17252864068517        0.94816695287860
C           -3.73812326289098       -0.97007172005516        1.46731896930172
C           -2.90769707088694       -0.28867642800935        0.37923866166961
O           -1.74704951839522       -1.10127256717161        0.15596774319870
C           -1.48242919426845       -1.48096831743136       -1.08401643213999
O           -2.07398742797146       -1.09261715226159       -2.06240934825971
C           -0.34516169172191       -2.47742134950928       -1.11559162175921
C            0.24574593961899       -2.66639974139571       -2.53183931897031
O            1.13842985504366       -3.74115496092626       -2.56808181872887
C            0.94257774800391       -1.36226965825083       -2.91561705169670
O            2.11145724186905       -1.17524004900019       -2.65069837853375
O            0.15175295489892       -0.50041639190902       -3.49627686178365
C           -2.53015959966622        1.16780077064433        0.72794298112767
C           -1.89857778782502        1.30384920430910        2.11028750860665
O          -11.56265061607126       -1.25096138945516       -0.59086482274087
H           15.63585564640498       -2.37756169374362       -1.20821611156624
H           17.17900476780455       -1.91323291216855       -0.42620596001850
H           16.08428885416598       -3.03663726732664        0.40240902333609
H           14.25880345349630        2.32285837871783        1.41200197697608
H           15.86717338050005        1.96645211582060        0.78798563400647
H           14.47533055896315        1.12694088864266        0.12787593118935
H           16.89474265410623        1.44285326379793        2.82083625673589
H           15.42414205682094        1.90901422302613        3.69214920674805
H           16.18691614880024        0.34728323217013        4.00038910563984
H           13.21040792277785        0.95170339745710        2.99656109438862
H           14.49510906466625       -1.36941998768005        3.88979795950798
H           11.85506061231865       -0.89670187612510        2.59830854592132
H           13.12362288254183       -0.47513496094211       -0.12767212506967
H           12.15900276647826        0.75665814594880        0.70248376727994
H           11.42590985628341       -0.77635458579134        0.26978880425908
H           13.41041047614395       -4.94209524107482        2.25926309578466
H           12.06433919583653       -4.42369669068020        3.27438955773189
H           11.75559601511880       -5.43332452262671        1.85629574772023
H           12.01700296499726       -4.49553363081779       -0.45554666313679
H           12.56088097598471       -2.82751568793462       -0.70263156331600
H           13.67311682700260       -4.03600515897890       -0.05722336944494
H           10.43716844619227       -2.73827876867144        2.49882461400080
H           10.14117758006562       -2.95842837819132       -0.52786378949569
H            8.30550387240343       -1.87832799885235       -1.17433299354040
H            6.16811354988144       -1.41460349556430        0.78737229774353
H            6.11682325806441       -1.11690844207469       -2.25395817438707
H            3.81627991582886       -0.98503066174109       -1.77847970947251
H            6.36267057850896       -3.50286529328292       -1.37194018078597
H            4.56458351295399       -4.34655120570568       -2.92473152509119
H            3.91765961024519       -2.70948220160482       -3.02721764256370
H            5.53897426932075       -3.05232072795130       -3.61788717635754
H            4.23615456688581       -4.54873936460672       -0.51479938755012
H            4.96918992698284       -3.41632954179637        0.61876028601219
H            3.55927103067891       -2.92685536112779       -0.31910476805168
H            7.17362191762222        0.70721305894806       -1.16114266755024
H            8.24764977910494        0.22606109267105        1.37278809392447
H            4.99592829090248        0.79660425312527        0.25416907535822
H            6.10394384240517        0.10722312747207        2.42319545500096
H            5.18578012398717        1.60702900463977        2.53542046223063
H            6.94260804835679        1.66463630515283        2.43884067280950
H            6.29671463643006        3.36332517602702        0.87978863290824
H            4.99897375580775        1.29450928059015       -1.94974195250282
H            6.20394592987938        2.15059432221123       -2.92316810574057
H            4.56139615677791        2.74892317315695       -2.85578043411892
H            6.16180668687140        5.10489687544750       -0.45270740044610
H            7.47587715857871        4.58756764732702       -2.26037893369000
H            3.63441113732185        4.52509007427294       -1.11141129652712
H            5.00357724528128        7.23782638605747       -1.29858383698576
H            3.26466116552058        7.02487985824458       -1.10774874991397
H            4.36286516956324        6.47923770021388        0.16420180923351
H            4.77773282459043        4.90508223642085       -3.68894025077678
H            3.91687211668410        6.39138283845424       -3.35583176592175
H            2.56781393073596        4.73187133870463       -4.57466761622264
H            2.64365686116291        3.62445987829506       -3.19666737513483
H            1.56450432138526        5.43881153989112       -1.79339676503466
H            0.51675732277383        7.06282078809691       -3.15246654405850
H           -0.70615122844817        5.12465572270921       -2.72177335031456
H           -1.16993908153309        4.04443584544709       -4.78370491497244
H            0.51095666799994        3.56293041107133       -5.02766234564523
H            0.05108567485327        5.26783860465620       -5.17137129797071
H           -0.16174392896811        4.24394984690360       -0.71706928154493
H           -0.14958032924164        2.65124757380401        0.85531936936484
H            0.54471812693719        0.50000891603109       -1.16069567638548
H            2.44821390626487        2.28535349689653        0.43850059060250
H            2.32838954094242        2.20855272774566       -1.32393621652795
H            2.90965913753089        0.81424343302147       -0.43518382877410
H            1.51735317870002       -0.18967045753545        0.97750978561043
H           -1.71551496489930        1.16000237511517       -1.28805658978310
H           -4.01353094670824        1.31765816373803       -1.78026719637761
H           -1.99621238772185        1.14501610771867       -3.31456097949185
H           -2.55836050635052        1.89349364842736       -5.49893124689671
H           -3.70457346989740       -1.04821562494927       -5.56871336524556
H           -5.03119959715469        3.21908080551913       -3.79314919862841
H           -6.34861716553558        0.16212238438402       -1.74323430315976
H           -6.16836909932117        0.84375569938765        0.59265982615966
H           -5.24590917199466        3.29602302015124        0.73650717031598
H           -7.04115440511181        4.85071657212393        0.51603912327257
H           -8.72236316908294        4.23129726368411       -1.24599790656971
H           -8.56105719771036        2.53156262992539       -0.81437125093690
H           -9.48744357976553        4.71783689493798        1.10947662129225
H          -10.59282795756119        3.68396084951599        0.20031724768959
H           -8.48024711410005        2.43784607308814        2.02583526506690
H          -10.31052621153895        1.39653514166915        3.13750529927403
H          -12.43603479938529        2.95202587223928        2.83076832994362
H          -13.68558208937157        2.10312975376987        0.97238123455242
H          -10.98031665903542        1.07301274147267       -0.03146511916097
H          -12.46339219928076        1.24100996067252       -0.98400335224350
H          -12.11348401620191       -0.70671680868637        1.33020776192397
H          -14.46855103897314       -0.27405005173485        0.78384574100672
H          -14.15276825112641       -0.57092209501108       -0.93564331364151
H          -13.82551996851578       -2.59844849148053        1.32068303902618
H          -15.81214365891170       -2.49544054863408       -0.99337479079395
H          -16.18968091082665       -2.19557505969180        0.70379066414353
H          -15.67079864340972       -3.80112558151766        0.18501272788519
H          -13.21654448728141       -4.17401307197261       -0.50458720656586
H          -13.42875866479407       -2.87795691341853       -1.68724816200715
H          -11.08436413590769       -3.02597628628209       -1.32580349682026
H          -11.30315632890098       -4.30270055019504        0.81442680763570
H          -11.51651641429725       -2.79051453151744        1.68881262931556
H           -9.09217779140901       -3.32986086061067       -0.07744378512719
H           -9.38980527578394       -4.93665481213426        1.58528962261592
H           -9.89328456035870       -1.15289727590052        1.77501657516653
H           -7.69563347928762       -1.37122966501823       -0.30981816185553
H           -8.36977537528327        0.10437548690008        0.39363461766951
H           -9.37191365392539       -0.90270705531664       -0.65041033628921
H           -7.03715286155225       -2.16352385655362        1.89652339959378
H           -7.12582749855294       -0.29895331348328        3.47367423338577
H          -10.34749227585244       -2.60781221926452        3.73059856528747
H           -9.61441428818987       -2.31090761870503        5.30539359480963
H           -9.76743967201467       -0.98996986819791        4.13503938394020
H           -7.78547133928439       -3.54922834069043        5.29104375296131
H           -5.51156987902876       -3.50514510772222        5.14919411700046
H           -5.04583090241415       -5.57696298199427        3.72482698552904
H           -6.32809181209009       -5.66825785260413        4.93531954774217
H           -6.75199056417334       -5.49159675569046        3.23979889891236
H           -5.10291066098350       -1.88041281822084        3.45126508501185
H           -3.55291144113686       -3.34676103457286        4.47202764342658
H           -6.79063430682898       -4.35013359848340        1.38901527417493
H           -5.22951037207059       -5.18002654062233        1.33134084387726
H           -5.73579299361194       -4.16312467089152       -0.01945187762319
H           -4.50095728853664       -2.27519987171573       -0.12847354392181
H           -4.45549412552474       -0.24609762750845        1.86427500948089
H           -3.06631065105756       -1.27982033856015        2.26820027455690
H           -3.48248648076928       -0.28141864408463       -0.55739764941108
H           -0.73460106011991       -3.44191564633997       -0.78021926736659
H            0.42082415121832       -2.16466412684463       -0.40369431027162
H           -0.56219003707600       -2.87414658455092       -3.23742131281364
H            1.98509304720408       -3.44743351385392       -2.19977960390308
H            0.50561579362780        0.41848043651749       -3.54710020935196
H           -3.48281610522431        1.71042033680070        0.74577972773302
H           -1.71211501989837        2.35138935824985        2.33305306019050
H           -2.58109840646333        0.92457217690581        2.86422027240716
H           -0.97037243392454        0.74626491833648        2.16006999054046
