 Set GAUSS_PDEF to "12".
 Entering Gaussian System, Link 0=g16
 Initial command:
 /leonardo/prod/opt/applications/g16/c02/binary/g16/l1.exe "/leonardo_scratch/large/userexternal/morza000/g16_39399957/Gau-488644.inp" -scrdir="/leonardo_scratch/large/userexternal/morza000/g16_39399957/"
 Default is to use a total of  12 processors:
                               12 via shared-memory
                                1 via Linda
 Entering Link 1 = /leonardo/prod/opt/applications/g16/c02/binary/g16/l1.exe PID=    488645.
  
 Copyright (c) 1988-2021, Gaussian, Inc.  All Rights Reserved.
  
 This is part of the Gaussian(R) 16 program.  It is based on
 the Gaussian(R) 09 system (copyright 2009, Gaussian, Inc.),
 the Gaussian(R) 03 system (copyright 2003, Gaussian, Inc.),
 the Gaussian(R) 98 system (copyright 1998, Gaussian, Inc.),
 the Gaussian(R) 94 system (copyright 1995, Gaussian, Inc.),
 the Gaussian 92(TM) system (copyright 1992, Gaussian, Inc.),
 the Gaussian 90(TM) system (copyright 1990, Gaussian, Inc.),
 the Gaussian 88(TM) system (copyright 1988, Gaussian, Inc.),
 the Gaussian 86(TM) system (copyright 1986, Carnegie Mellon
 University), and the Gaussian 82(TM) system (copyright 1983,
 Carnegie Mellon University). Gaussian is a federally registered
 trademark of Gaussian, Inc.
  
 This software contains proprietary and confidential information,
 including trade secrets, belonging to Gaussian, Inc.
  
 This software is provided under written license and may be
 used, copied, transmitted, or stored only in accord with that
 written license.
  
 The following legend is applicable only to US Government
 contracts under FAR:
  
                    RESTRICTED RIGHTS LEGEND
  
 Use, reproduction and disclosure by the US Government is
 subject to restrictions as set forth in subparagraphs (a)
 and (c) of the Commercial Computer Software - Restricted
 Rights clause in FAR 52.227-19.
  
 Gaussian, Inc.
 340 Quinnipiac St., Bldg. 40, Wallingford CT 06492
  
  
 ---------------------------------------------------------------
 Warning -- This program may not be used in any manner that
 competes with the business of Gaussian, Inc. or will provide
 assistance to any competitor of Gaussian, Inc.  The licensee
 of this program is prohibited from giving any competitor of
 Gaussian, Inc. access to this program.  By using this program,
 the user acknowledges that Gaussian, Inc. is engaged in the
 business of creating and licensing software in the field of
 computational chemistry and represents and warrants to the
 licensee that it is not a competitor of Gaussian, Inc. and that
 it will not use this program in any manner prohibited above.
 ---------------------------------------------------------------
  

 Cite this work as:
 Gaussian 16, Revision C.02,
 M. J. Frisch, G. W. Trucks, H. B. Schlegel, G. E. Scuseria, 
 M. A. Robb, J. R. Cheeseman, G. Scalmani, V. Barone, 
 G. A. Petersson, H. Nakatsuji, X. Li, M. Caricato, A. V. Marenich, 
 J. Bloino, B. G. Janesko, R. Gomperts, B. Mennucci, H. P. Hratchian, 
 J. V. Ortiz, A. F. Izmaylov, J. L. Sonnenberg, D. Williams-Young, 
 F. Ding, F. Lipparini, F. Egidi, J. Goings, B. Peng, A. Petrone, 
 T. Henderson, D. Ranasinghe, V. G. Zakrzewski, J. Gao, N. Rega, 
 G. Zheng, W. Liang, M. Hada, M. Ehara, K. Toyota, R. Fukuda, 
 J. Hasegawa, M. Ishida, T. Nakajima, Y. Honda, O. Kitao, H. Nakai, 
 T. Vreven, K. Throssell, J. A. Montgomery, Jr., J. E. Peralta, 
 F. Ogliaro, M. J. Bearpark, J. J. Heyd, E. N. Brothers, K. N. Kudin, 
 V. N. Staroverov, T. A. Keith, R. Kobayashi, J. Normand, 
 K. Raghavachari, A. P. Rendell, J. C. Burant, S. S. Iyengar, 
 J. Tomasi, M. Cossi, J. M. Millam, M. Klene, C. Adamo, R. Cammi, 
 J. W. Ochterski, R. L. Martin, K. Morokuma, O. Farkas, 
 J. B. Foresman, and D. J. Fox, Gaussian, Inc., Wallingford CT, 2019.
 
 ******************************************
 Gaussian 16:  ES64L-G16RevC.02  7-Dec-2021
                 8-Apr-2026 
 ******************************************
 %chk=file.chk
 %nproc=12
 Will use up to   12 processors via shared memory.
 %mem=12GB
 --------------------------------------
 #p opt=addredundant B3LYP/6-31G(2df,p)
 --------------------------------------
 1/18=120,19=15,26=3,38=1/1,3;
 2/9=110,12=2,17=6,18=5,40=1/2;
 3/5=1,6=6,7=104,11=2,25=1,30=1,71=1,74=-5/1,2,3;
 4//1;
 5/5=2,38=5/2;
 6/7=2,8=2,9=2,10=2,28=1/1;
 7//1,2,3,16;
 1/18=20,19=15,26=3/3(2);
 2/9=110/2;
 99//99;
 2/9=110/2;
 3/5=1,6=6,7=104,11=2,25=1,30=1,71=1,74=-5/1,2,3;
 4/5=5,16=3,69=1/1;
 5/5=2,38=5/2;
 7//1,2,3,16;
 1/18=20,19=15,26=3/3(-5);
 2/9=110/2;
 6/7=2,8=2,9=2,10=2,19=2,28=1/1;
 99/9=1/99;
 Leave Link    1 at Wed Apr  8 17:09:39 2026, MaxMem=  1610612736 cpu:               0.2 elap:               3.8
 (Enter /leonardo/prod/opt/applications/g16/c02/binary/g16/l101.exe)
 -------------------
 Title Card Required
 -------------------
 Symbolic Z-matrix:
 Charge =  0 Multiplicity = 1
 C                     0.75983   0.00597   0.03872 
 C                    -0.75983  -0.00597  -0.03872 
 H                     1.19386  -0.27567  -0.91801 
 H                     1.10997  -0.6953    0.79281 
 H                     1.1218    0.99787   0.29976 
 H                    -1.1218   -0.99787  -0.29976 
 H                    -1.10997   0.69529  -0.79281 
 H                    -1.19386   0.27567   0.91801 
 
 The following ModRedundant input section has been read:
 
 ITRead=  0  0  0  0  0  0  0  0
 MicOpt= -1 -1 -1 -1 -1 -1 -1 -1
 NAtoms=      8 NQM=        8 NQMF=       0 NMMI=      0 NMMIF=      0
                NMic=       0 NMicF=      0.
                    Isotopes and Nuclear Properties:
 (Nuclear quadrupole moments (NQMom) in fm**2, nuclear magnetic moments (NMagM)
  in nuclear magnetons)

  Atom         1           2           3           4           5           6           7           8
 IAtWgt=          12          12           1           1           1           1           1           1
 AtmWgt=  12.0000000  12.0000000   1.0078250   1.0078250   1.0078250   1.0078250   1.0078250   1.0078250
 NucSpn=           0           0           1           1           1           1           1           1
 AtZEff=  -0.0000000  -0.0000000  -0.0000000  -0.0000000  -0.0000000  -0.0000000  -0.0000000  -0.0000000
 NQMom=    0.0000000   0.0000000   0.0000000   0.0000000   0.0000000   0.0000000   0.0000000   0.0000000
 NMagM=    0.0000000   0.0000000   2.7928460   2.7928460   2.7928460   2.7928460   2.7928460   2.7928460
 AtZNuc=   6.0000000   6.0000000   1.0000000   1.0000000   1.0000000   1.0000000   1.0000000   1.0000000
 Leave Link  101 at Wed Apr  8 17:09:42 2026, MaxMem=  1610612736 cpu:               0.4 elap:               1.0
 (Enter /leonardo/prod/opt/applications/g16/c02/binary/g16/l103.exe)

 GradGradGradGradGradGradGradGradGradGradGradGradGradGradGradGradGradGrad
 Berny optimization.
 Initialization pass.
                           ----------------------------
                           !    Initial Parameters    !
                           ! (Angstroms and Degrees)  !
 --------------------------                            --------------------------
 ! Name  Definition              Value          Derivative Info.                !
 --------------------------------------------------------------------------------
 ! R1    R(1,2)                  1.5217         estimate D2E/DX2                !
 ! R2    R(1,3)                  1.0877         estimate D2E/DX2                !
 ! R3    R(1,4)                  1.0877         estimate D2E/DX2                !
 ! R4    R(1,5)                  1.0877         estimate D2E/DX2                !
 ! R5    R(2,6)                  1.0877         estimate D2E/DX2                !
 ! R6    R(2,7)                  1.0877         estimate D2E/DX2                !
 ! R7    R(2,8)                  1.0877         estimate D2E/DX2                !
 ! A1    A(2,1,3)              110.5926         estimate D2E/DX2                !
 ! A2    A(2,1,4)              110.5926         estimate D2E/DX2                !
 ! A3    A(2,1,5)              110.5926         estimate D2E/DX2                !
 ! A4    A(3,1,4)              108.327          estimate D2E/DX2                !
 ! A5    A(3,1,5)              108.3269         estimate D2E/DX2                !
 ! A6    A(4,1,5)              108.327          estimate D2E/DX2                !
 ! A7    A(1,2,6)              110.5926         estimate D2E/DX2                !
 ! A8    A(1,2,7)              110.5926         estimate D2E/DX2                !
 ! A9    A(1,2,8)              110.5926         estimate D2E/DX2                !
 ! A10   A(6,2,7)              108.327          estimate D2E/DX2                !
 ! A11   A(6,2,8)              108.3269         estimate D2E/DX2                !
 ! A12   A(7,2,8)              108.327          estimate D2E/DX2                !
 ! D1    D(3,1,2,6)             60.0001         estimate D2E/DX2                !
 ! D2    D(3,1,2,7)            -59.9999         estimate D2E/DX2                !
 ! D3    D(3,1,2,8)           -179.9999         estimate D2E/DX2                !
 ! D4    D(4,1,2,6)            -59.9999         estimate D2E/DX2                !
 ! D5    D(4,1,2,7)           -179.9999         estimate D2E/DX2                !
 ! D6    D(4,1,2,8)             60.0            estimate D2E/DX2                !
 ! D7    D(5,1,2,6)           -179.9999         estimate D2E/DX2                !
 ! D8    D(5,1,2,7)             60.0            estimate D2E/DX2                !
 ! D9    D(5,1,2,8)            -60.0            estimate D2E/DX2                !
 --------------------------------------------------------------------------------
 Trust Radius=3.00D-01 FncErr=1.00D-07 GrdErr=1.00D-06 EigMax=2.50D+02 EigMin=1.00D-04
 Number of steps in this run=     38 maximum allowed number of steps=    100.
 GradGradGradGradGradGradGradGradGradGradGradGradGradGradGradGradGradGrad

 Leave Link  103 at Wed Apr  8 17:09:44 2026, MaxMem=  1610612736 cpu:               0.0 elap:               0.8
 (Enter /leonardo/prod/opt/applications/g16/c02/binary/g16/l202.exe)
                          Input orientation:                          
 ---------------------------------------------------------------------
 Center     Atomic      Atomic             Coordinates (Angstroms)
 Number     Number       Type             X           Y           Z
 ---------------------------------------------------------------------
      1          6           0        0.759827    0.005968    0.038718
      2          6           0       -0.759827   -0.005968   -0.038718
      3          1           0        1.193855   -0.275667   -0.918012
      4          1           0        1.109974   -0.695295    0.792813
      5          1           0        1.121799    0.997869    0.299756
      6          1           0       -1.121799   -0.997869   -0.299755
      7          1           0       -1.109974    0.695294   -0.792814
      8          1           0       -1.193855    0.275668    0.918012
 ---------------------------------------------------------------------
                    Distance matrix (angstroms):
                    1          2          3          4          5
     1  C    0.000000
     2  C    1.521672   0.000000
     3  H    1.087672   2.159345   0.000000
     4  H    1.087673   2.159345   1.763532   0.000000
     5  H    1.087673   2.159345   1.763532   1.763533   0.000000
     6  H    2.159345   1.087673   2.503212   2.503211   3.062044
     7  H    2.159345   1.087673   2.503212   3.062045   2.503212
     8  H    2.159345   1.087672   3.062044   2.503212   2.503212
                    6          7          8
     6  H    0.000000
     7  H    1.763533   0.000000
     8  H    1.763532   1.763533   0.000000
 Stoichiometry    C2H6
 Framework group  D3[C3(C.C),X(H6)]
 Deg. of freedom     4
 Full point group                 D3      NOp   6
 Largest Abelian subgroup         C2      NOp   2
 Largest concise Abelian subgroup C2      NOp   2
                         Standard orientation:                         
 ---------------------------------------------------------------------
 Center     Atomic      Atomic             Coordinates (Angstroms)
 Number     Number       Type             X           Y           Z
 ---------------------------------------------------------------------
      1          6           0       -0.000000    0.000000    0.760836
      2          6           0        0.000000    0.000000   -0.760836
      3          1           0       -1.018176   -0.000001    1.143393
      4          1           0        0.509087    0.881766    1.143393
      5          1           0        0.509089   -0.881765    1.143393
      6          1           0       -0.509087    0.881766   -1.143393
      7          1           0       -0.509089   -0.881765   -1.143393
      8          1           0        1.018176   -0.000001   -1.143393
 ---------------------------------------------------------------------
 Rotational constants (GHZ):          80.6186401          20.2696752          20.2696752
 Leave Link  202 at Wed Apr  8 17:09:47 2026, MaxMem=  1610612736 cpu:               0.1 elap:               1.0
 (Enter /leonardo/prod/opt/applications/g16/c02/binary/g16/l301.exe)
 Standard basis: 6-31G(2df,p) (6D, 7F)
 Ernie: Thresh=  0.10000D-02 Tol=  0.10000D-05 Strict=F.
 There are    46 symmetry adapted cartesian basis functions of A   symmetry.
 There are    46 symmetry adapted cartesian basis functions of B   symmetry.
 There are    43 symmetry adapted basis functions of A   symmetry.
 There are    43 symmetry adapted basis functions of B   symmetry.
    86 basis functions,   130 primitive gaussians,    92 cartesian basis functions
     9 alpha electrons        9 beta electrons
       nuclear repulsion energy        42.4437346732 Hartrees.
 IExCor=  402 DFT=T Ex+Corr=B3LYP ExCW=0 ScaHFX=  0.200000
 ScaDFX=  0.800000  0.720000  1.000000  0.810000 ScalE2=  1.000000  1.000000
 IRadAn=      5 IRanWt=     -1 IRanGd=            0 ICorTp=0 IEmpDi=  4
 NAtoms=    8 NActive=    8 NUniq=    2 SFac= 4.00D+00 NAtFMM=   60 NAOKFM=F Big=F
 Integral buffers will be    131072 words long.
 Raffenetti 2 integral format.
 Two-electron integral symmetry is turned on.
 Leave Link  301 at Wed Apr  8 17:09:49 2026, MaxMem=  1610612736 cpu:               0.1 elap:               0.7
 (Enter /leonardo/prod/opt/applications/g16/c02/binary/g16/l302.exe)
 NPDir=0 NMtPBC=     1 NCelOv=     1 NCel=       1 NClECP=     1 NCelD=      1
         NCelK=      1 NCelE2=     1 NClLst=     1 CellRange=     0.0.
 One-electron integrals computed using PRISM.
 One-electron integral symmetry used in STVInt
 NBasis=    86 RedAO= T EigKep=  1.39D-03  NBF=    43    43
 NBsUse=    86 1.00D-06 EigRej= -1.00D+00 NBFU=    43    43
 Precomputing XC quadrature grid using
 IXCGrd= 4 IRadAn=           5 IRanWt=          -1 IRanGd=           0 AccXCQ= 0.00D+00.
 Generated NRdTot=       0 NPtTot=           0 NUsed=           0 NTot=          32
 NSgBfM=    92    92    92    92    92 MxSgAt=     8 MxSgA2=     8.
 Leave Link  302 at Wed Apr  8 17:09:52 2026, MaxMem=  1610612736 cpu:               0.9 elap:               0.9
 (Enter /leonardo/prod/opt/applications/g16/c02/binary/g16/l303.exe)
 DipDrv:  MaxL=1.
 Leave Link  303 at Wed Apr  8 17:09:55 2026, MaxMem=  1610612736 cpu:               0.1 elap:               0.7
 (Enter /leonardo/prod/opt/applications/g16/c02/binary/g16/l401.exe)
 ExpMin= 1.61D-01 ExpMax= 3.05D+03 ExpMxC= 4.57D+02 IAcc=3 IRadAn=         5 AccDes= 0.00D+00
 Harris functional with IExCor=  402 and IRadAn=       5 diagonalized for initial guess.
 HarFok:  IExCor=  402 AccDes= 0.00D+00 IRadAn=         5 IDoV= 1 UseB2=F ITyADJ=14
 ICtDFT=  3500011 ScaDFX=  1.000000  1.000000  1.000000  1.000000
 FoFCou: FMM=F IPFlag=           0 FMFlag=      100000 FMFlg1=           0
         NFxFlg=           0 DoJE=T BraDBF=F KetDBF=T FulRan=T
         wScrn=  0.000000 ICntrl=       500 IOpCl=  0 I1Cent=   200000004 NGrid=           0
         NMat0=    1 NMatS0=      1 NMatT0=    0 NMatD0=    1 NMtDS0=    0 NMtDT0=    0
 Petite list used in FoFCou.
 Harris En= -79.8946488186714    
 JPrj=0 DoOrth=F DoCkMO=F.
 Initial guess orbital symmetries:
       Occupied  (A1) (A2) (A1) (A2) (E) (E) (A1) (E) (E)
       Virtual   (A1) (E) (E) (A2) (E) (E) (A2) (A1) (E) (E) (A2)
                 (E) (E) (E) (E) (E) (E) (A1) (E) (E) (A2) (A1)
                 (E) (E) (A2) (A2) (E) (E) (A1) (E) (E) (A1) (A2)
                 (E) (E) (E) (E) (A2) (A1) (A1) (E) (E) (E) (E)
                 (A2) (E) (E) (E) (E) (A1) (A1) (A2) (A1) (E) (E)
                 (A2) (E) (E) (A2) (E) (E) (E) (E) (E) (E) (E)
                 (E) (A2) (E) (E) (A1) (E) (E) (A1) (A2) (A1) (A2)
 The electronic state of the initial guess is 1-A1.
 Leave Link  401 at Wed Apr  8 17:09:58 2026, MaxMem=  1610612736 cpu:               2.3 elap:               1.1
 (Enter /leonardo/prod/opt/applications/g16/c02/binary/g16/l502.exe)
 Keep R1 ints in memory in symmetry-blocked form, NReq=18026967.
 FoFCou: FMM=F IPFlag=           0 FMFlag=           0 FMFlg1=           0
         NFxFlg=           0 DoJE=F BraDBF=F KetDBF=F FulRan=T
         wScrn=  0.000000 ICntrl=       600 IOpCl=  0 I1Cent=           0 NGrid=           0
         NMat0=    1 NMatS0=   3741 NMatT0=    0 NMatD0=    1 NMtDS0=    0 NMtDT0=    0
 Petite list used in FoFCou.
 Closed shell SCF:
 Using DIIS extrapolation, IDIIS=  1040.
 NGot=  1610612736 LenX=  1607083919 LenY=  1607075014
 Requested convergence on RMS density matrix=1.00D-08 within 128 cycles.
 Requested convergence on MAX density matrix=1.00D-06.
 Requested convergence on             energy=1.00D-06.
 No special actions if energy rises.
 Integral accuracy reduced to 1.0D-05 until final iterations.

 Cycle   1  Pass 0  IDiag  1:
 E= -79.7077230896008    
 DIIS: error= 4.47D-02 at cycle   1 NSaved=   1.
 NSaved= 1 IEnMin= 1 EnMin= -79.7077230896008     IErMin= 1 ErrMin= 4.47D-02
 ErrMax= 4.47D-02  0.00D+00 EMaxC= 1.00D-01 BMatC= 1.15D-01 BMatP= 1.15D-01
 IDIUse=3 WtCom= 5.53D-01 WtEn= 4.47D-01
 Coeff-Com:  0.100D+01
 Coeff-En:   0.100D+01
 Coeff:      0.100D+01
 Gap=     0.378 Goal=   None    Shift=    0.000
 GapD=    0.378 DampG=1.000 DampE=0.500 DampFc=0.5000 IDamp=-1.
 Damping current iteration by 5.00D-01
 RMSDP=8.61D-03 MaxDP=1.38D-01              OVMax= 1.89D-01

 Cycle   2  Pass 0  IDiag  1:
 E= -79.7659318869204     Delta-E=       -0.058208797320 Rises=F Damp=T
 DIIS: error= 8.96D-03 at cycle   2 NSaved=   2.
 NSaved= 2 IEnMin= 2 EnMin= -79.7659318869204     IErMin= 2 ErrMin= 8.96D-03
 ErrMax= 8.96D-03  0.00D+00 EMaxC= 1.00D-01 BMatC= 3.97D-03 BMatP= 1.15D-01
 IDIUse=3 WtCom= 9.10D-01 WtEn= 8.96D-02
 Coeff-Com:  0.839D-01 0.916D+00
 Coeff-En:   0.130D+00 0.870D+00
 Coeff:      0.881D-01 0.912D+00
 Gap=     0.436 Goal=   None    Shift=    0.000
 RMSDP=1.05D-03 MaxDP=1.68D-02 DE=-5.82D-02 OVMax= 9.80D-02

 Cycle   3  Pass 0  IDiag  1:
 E= -79.8380834449475     Delta-E=       -0.072151558027 Rises=F Damp=F
 DIIS: error= 2.83D-03 at cycle   3 NSaved=   3.
 NSaved= 3 IEnMin= 3 EnMin= -79.8380834449475     IErMin= 3 ErrMin= 2.83D-03
 ErrMax= 2.83D-03  0.00D+00 EMaxC= 1.00D-01 BMatC= 1.97D-04 BMatP= 3.97D-03
 IDIUse=3 WtCom= 9.72D-01 WtEn= 2.83D-02
 Coeff-Com:  0.779D-02 0.132D+00 0.860D+00
 Coeff-En:   0.000D+00 0.000D+00 0.100D+01
 Coeff:      0.757D-02 0.128D+00 0.864D+00
 Gap=     0.443 Goal=   None    Shift=    0.000
 RMSDP=1.27D-04 MaxDP=1.18D-03 DE=-7.22D-02 OVMax= 5.14D-03

 Cycle   4  Pass 0  IDiag  1:
 E= -79.8382554968086     Delta-E=       -0.000172051861 Rises=F Damp=F
 DIIS: error= 7.07D-04 at cycle   4 NSaved=   4.
 NSaved= 4 IEnMin= 4 EnMin= -79.8382554968086     IErMin= 4 ErrMin= 7.07D-04
 ErrMax= 7.07D-04  0.00D+00 EMaxC= 1.00D-01 BMatC= 1.54D-05 BMatP= 1.97D-04
 IDIUse=3 WtCom= 9.93D-01 WtEn= 7.07D-03
 Coeff-Com:  0.106D-02-0.475D-02 0.206D+00 0.798D+00
 Coeff-En:   0.000D+00 0.000D+00 0.000D+00 0.100D+01
 Coeff:      0.105D-02-0.471D-02 0.204D+00 0.799D+00
 Gap=     0.443 Goal=   None    Shift=    0.000
 RMSDP=2.93D-05 MaxDP=3.01D-04 DE=-1.72D-04 OVMax= 1.31D-03

 Cycle   5  Pass 0  IDiag  1:
 E= -79.8382702265905     Delta-E=       -0.000014729782 Rises=F Damp=F
 DIIS: error= 1.52D-05 at cycle   5 NSaved=   5.
 NSaved= 5 IEnMin= 5 EnMin= -79.8382702265905     IErMin= 5 ErrMin= 1.52D-05
 ErrMax= 1.52D-05  0.00D+00 EMaxC= 1.00D-01 BMatC= 1.03D-08 BMatP= 1.54D-05
 IDIUse=1 WtCom= 1.00D+00 WtEn= 0.00D+00
 Coeff-Com:  0.159D-03-0.777D-03-0.683D-02-0.808D-02 0.102D+01
 Coeff:      0.159D-03-0.777D-03-0.683D-02-0.808D-02 0.102D+01
 Gap=     0.443 Goal=   None    Shift=    0.000
 RMSDP=1.19D-06 MaxDP=2.13D-05 DE=-1.47D-05 OVMax= 3.62D-05

 Initial convergence to 1.0D-05 achieved.  Increase integral accuracy.
 Cycle   6  Pass 1  IDiag  1:
 E= -79.8382720376964     Delta-E=       -0.000001811106 Rises=F Damp=F
 DIIS: error= 9.05D-07 at cycle   1 NSaved=   1.
 NSaved= 1 IEnMin= 1 EnMin= -79.8382720376964     IErMin= 1 ErrMin= 9.05D-07
 ErrMax= 9.05D-07  0.00D+00 EMaxC= 1.00D-01 BMatC= 5.76D-11 BMatP= 5.76D-11
 IDIUse=1 WtCom= 1.00D+00 WtEn= 0.00D+00
 Coeff-Com:  0.100D+01
 Coeff:      0.100D+01
 Gap=     0.443 Goal=   None    Shift=    0.000
 RMSDP=1.19D-06 MaxDP=2.13D-05 DE=-1.81D-06 OVMax= 3.09D-06

 Cycle   7  Pass 1  IDiag  1:
 E= -79.8382720377331     Delta-E=       -0.000000000037 Rises=F Damp=F
 DIIS: error= 7.50D-07 at cycle   2 NSaved=   2.
 NSaved= 2 IEnMin= 2 EnMin= -79.8382720377331     IErMin= 2 ErrMin= 7.50D-07
 ErrMax= 7.50D-07  0.00D+00 EMaxC= 1.00D-01 BMatC= 2.66D-11 BMatP= 5.76D-11
 IDIUse=1 WtCom= 1.00D+00 WtEn= 0.00D+00
 Coeff-Com:  0.372D+00 0.628D+00
 Coeff:      0.372D+00 0.628D+00
 Gap=     0.443 Goal=   None    Shift=    0.000
 RMSDP=7.73D-08 MaxDP=1.31D-06 DE=-3.67D-11 OVMax= 1.79D-06

 Cycle   8  Pass 1  IDiag  1:
 E= -79.8382720377573     Delta-E=       -0.000000000024 Rises=F Damp=F
 DIIS: error= 2.87D-07 at cycle   3 NSaved=   3.
 NSaved= 3 IEnMin= 3 EnMin= -79.8382720377573     IErMin= 3 ErrMin= 2.87D-07
 ErrMax= 2.87D-07  0.00D+00 EMaxC= 1.00D-01 BMatC= 4.23D-12 BMatP= 2.66D-11
 IDIUse=1 WtCom= 1.00D+00 WtEn= 0.00D+00
 Coeff-Com:  0.468D-02 0.284D+00 0.711D+00
 Coeff:      0.468D-02 0.284D+00 0.711D+00
 Gap=     0.443 Goal=   None    Shift=    0.000
 RMSDP=1.95D-08 MaxDP=3.64D-07 DE=-2.41D-11 OVMax= 4.63D-07

 Cycle   9  Pass 1  IDiag  1:
 E= -79.8382720377620     Delta-E=       -0.000000000005 Rises=F Damp=F
 DIIS: error= 1.19D-08 at cycle   4 NSaved=   4.
 NSaved= 4 IEnMin= 4 EnMin= -79.8382720377620     IErMin= 4 ErrMin= 1.19D-08
 ErrMax= 1.19D-08  0.00D+00 EMaxC= 1.00D-01 BMatC= 4.36D-15 BMatP= 4.23D-12
 IDIUse=1 WtCom= 1.00D+00 WtEn= 0.00D+00
 Coeff-Com: -0.302D-02 0.147D-01 0.210D-01 0.967D+00
 Coeff:     -0.302D-02 0.147D-01 0.210D-01 0.967D+00
 Gap=     0.443 Goal=   None    Shift=    0.000
 RMSDP=6.35D-10 MaxDP=5.58D-09 DE=-4.69D-12 OVMax= 2.02D-08

 SCF Done:  E(RB3LYP) =  -79.8382720378     A.U. after    9 cycles
            NFock=  9  Conv=0.63D-09     -V/T= 2.0090
 KE= 7.912349181267D+01 PE=-2.688482354713D+02 EE= 6.744273694769D+01
 Leave Link  502 at Wed Apr  8 17:10:03 2026, MaxMem=  1610612736 cpu:               4.2 elap:               2.7
 (Enter /leonardo/prod/opt/applications/g16/c02/binary/g16/l601.exe)
 Copying SCF densities to generalized density rwf, IOpCl= 0 IROHF=0.

 **********************************************************************

            Population analysis using the SCF Density.

 **********************************************************************

 Orbital symmetries:
       Occupied  (A1) (A2) (A1) (A2) (E) (E) (A1) (E) (E)
       Virtual   (A1) (A2) (E) (E) (E) (E) (A2) (A1) (E) (E) (E)
                 (E) (A2) (E) (E) (E) (E) (E) (E) (A1) (A2) (A1)
                 (E) (E) (A2) (A2) (E) (E) (A1) (E) (E) (A1) (A2)
                 (E) (E) (E) (E) (A2) (A1) (A1) (E) (E) (E) (E)
                 (A2) (E) (E) (E) (E) (A1) (A1) (A2) (A1) (E) (E)
                 (A2) (E) (E) (A2) (E) (E) (E) (E) (E) (E) (E)
                 (E) (A2) (A1) (E) (E) (E) (E) (A1) (A2) (A1) (A2)
 The electronic state is 1-A1.
 Alpha  occ. eigenvalues --  -10.16801 -10.16778  -0.75095  -0.61094  -0.43270
 Alpha  occ. eigenvalues --   -0.43270  -0.35986  -0.33961  -0.33961
 Alpha virt. eigenvalues --    0.10388   0.15794   0.16699   0.16699   0.19026
 Alpha virt. eigenvalues --    0.19026   0.23765   0.48399   0.51698   0.51698
 Alpha virt. eigenvalues --    0.56668   0.56668   0.58305   0.73244   0.73244
 Alpha virt. eigenvalues --    0.76037   0.76037   0.81648   0.81648   0.81965
 Alpha virt. eigenvalues --    0.91527   1.00338   1.20820   1.20820   1.36129
 Alpha virt. eigenvalues --    1.55846   1.58247   1.58247   1.61584   1.89475
 Alpha virt. eigenvalues --    1.89475   1.95511   1.97436   2.18268   2.18268
 Alpha virt. eigenvalues --    2.30196   2.30196   2.39779   2.44868   2.63781
 Alpha virt. eigenvalues --    2.77992   2.77992   2.79023   2.79023   2.87176
 Alpha virt. eigenvalues --    2.92350   2.92350   3.08092   3.08092   3.10129
 Alpha virt. eigenvalues --    3.32356   3.34636   3.54886   3.57727   3.57727
 Alpha virt. eigenvalues --    3.61849   3.70466   3.70466   3.83810   4.10822
 Alpha virt. eigenvalues --    4.10822   4.38517   4.38517   4.42217   4.42217
 Alpha virt. eigenvalues --    4.53159   4.53159   4.70267   4.79076   4.79222
 Alpha virt. eigenvalues --    4.79222   4.88977   4.88977   5.37430   5.52335
 Alpha virt. eigenvalues --   11.16604  11.82439
          Condensed to atoms (all electrons):
               1          2          3          4          5          6
     1  C    4.855414   0.422346   0.387375   0.387375   0.387375  -0.032213
     2  C    0.422346   4.855414  -0.032213  -0.032213  -0.032213   0.387375
     3  H    0.387375  -0.032213   0.598043  -0.032877  -0.032877  -0.003495
     4  H    0.387375  -0.032213  -0.032877   0.598043  -0.032877  -0.003495
     5  H    0.387375  -0.032213  -0.032877  -0.032877   0.598043   0.005126
     6  H   -0.032213   0.387375  -0.003495  -0.003495   0.005126   0.598043
     7  H   -0.032213   0.387375  -0.003495   0.005126  -0.003495  -0.032877
     8  H   -0.032213   0.387375   0.005126  -0.003495  -0.003495  -0.032877
               7          8
     1  C   -0.032213  -0.032213
     2  C    0.387375   0.387375
     3  H   -0.003495   0.005126
     4  H    0.005126  -0.003495
     5  H   -0.003495  -0.003495
     6  H   -0.032877  -0.032877
     7  H    0.598043  -0.032877
     8  H   -0.032877   0.598043
 Mulliken charges:
               1
     1  C   -0.343245
     2  C   -0.343245
     3  H    0.114415
     4  H    0.114415
     5  H    0.114415
     6  H    0.114415
     7  H    0.114415
     8  H    0.114415
 Sum of Mulliken charges =  -0.00000
 Mulliken charges with hydrogens summed into heavy atoms:
               1
     1  C   -0.000000
     2  C   -0.000000
 Electronic spatial extent (au):  <R**2>=            108.1062
 Charge=             -0.0000 electrons
 Dipole moment (field-independent basis, Debye):
    X=              0.0000    Y=              0.0000    Z=              0.0000  Tot=              0.0000
 Quadrupole moment (field-independent basis, Debye-Ang):
   XX=            -14.5776   YY=            -14.5776   ZZ=            -15.3330
   XY=              0.0000   XZ=              0.0000   YZ=              0.0000
 Traceless Quadrupole moment (field-independent basis, Debye-Ang):
   XX=              0.2518   YY=              0.2518   ZZ=             -0.5037
   XY=              0.0000   XZ=              0.0000   YZ=              0.0000
 Octapole moment (field-independent basis, Debye-Ang**2):
  XXX=             -0.0000  YYY=              0.0000  ZZZ=              0.0000  XYY=             -0.0000
  XXY=             -0.0000  XXZ=              0.0000  XZZ=             -0.0000  YZZ=              0.0000
  YYZ=              0.0000  XYZ=              0.0000
 Hexadecapole moment (field-independent basis, Debye-Ang**3):
 XXXX=            -28.3051 YYYY=            -28.3051 ZZZZ=            -91.2094 XXXY=             -0.0000
 XXXZ=             -1.2156 YYYX=             -0.0000 YYYZ=              0.0000 ZZZX=              0.0000
 ZZZY=              0.0000 XXYY=             -9.4350 XXZZ=            -18.8177 YYZZ=            -18.8177
 XXYZ=              0.0000 YYXZ=              1.2156 ZZXY=              0.0000
 N-N= 4.244373467320D+01 E-N=-2.688482357688D+02  KE= 7.912349181267D+01
 Symmetry A    KE= 4.080495907640D+01
 Symmetry B    KE= 3.831853273627D+01
 No NMR shielding tensors so no spin-rotation constants.
 Leave Link  601 at Wed Apr  8 17:10:05 2026, MaxMem=  1610612736 cpu:               1.1 elap:               0.6
 (Enter /leonardo/prod/opt/applications/g16/c02/binary/g16/l701.exe)
 ... and contract with generalized density number  0.
 Compute integral first derivatives.
 Leave Link  701 at Wed Apr  8 17:10:06 2026, MaxMem=  1610612736 cpu:               1.4 elap:               0.6
 (Enter /leonardo/prod/opt/applications/g16/c02/binary/g16/l702.exe)
 L702 exits ... SP integral derivatives will be done elsewhere.
 Leave Link  702 at Wed Apr  8 17:10:08 2026, MaxMem=  1610612736 cpu:               0.1 elap:               0.5
 (Enter /leonardo/prod/opt/applications/g16/c02/binary/g16/l703.exe)
 Integral derivatives from FoFJK, PRISM(SPDF).
 Compute integral first derivatives, UseDBF=F ICtDFT=           0.
 Calling FoFJK, ICntrl=      2127 FMM=F ISym2X=1 I1Cent= 0 IOpClX= 0 NMat=1 NMatS=1 NMatT=0.
 FoFJK:  IHMeth= 1 ICntrl=    2127 DoSepK=F KAlg= 0 I1Cent=           0 FoldK=F
 IRaf=         0 NMat=       1 IRICut=       1 DoRegI=T DoRafI=F ISym2E= 1 IDoP0=0 IntGTp=1.
 FoFCou: FMM=F IPFlag=           0 FMFlag=      100000 FMFlg1=         800
         NFxFlg=           0 DoJE=F BraDBF=F KetDBF=F FulRan=T
         wScrn=  0.000000 ICntrl=      2127 IOpCl=  0 I1Cent=           0 NGrid=           0
         NMat0=    1 NMatS0=      1 NMatT0=    0 NMatD0=    1 NMtDS0=    0 NMtDT0=    0
 Petite list used in FoFCou.
 Leave Link  703 at Wed Apr  8 17:10:10 2026, MaxMem=  1610612736 cpu:               4.6 elap:               0.9
 (Enter /leonardo/prod/opt/applications/g16/c02/binary/g16/l716.exe)
 Dipole        = 2.22044605D-16 7.79111916D-16-8.88178420D-16
 ***** Axes restored to original set *****
 -------------------------------------------------------------------
 Center     Atomic                   Forces (Hartrees/Bohr)
 Number     Number              X              Y              Z
 -------------------------------------------------------------------
      1        6          -0.002770382   -0.000021760   -0.000141168
      2        6           0.002770382    0.000021760    0.000141168
      3        1           0.003735727   -0.000960438   -0.003208537
      4        1           0.003444461   -0.002417519    0.002732049
      5        1           0.003485524    0.003461731    0.001019973
      6        1          -0.003485523   -0.003461729   -0.001019981
      7        1          -0.003444461    0.002417525   -0.002732043
      8        1          -0.003735727    0.000960430    0.003208539
 -------------------------------------------------------------------
 Cartesian Forces:  Max     0.003735727 RMS     0.002633341
 Leave Link  716 at Wed Apr  8 17:10:11 2026, MaxMem=  1610612736 cpu:               0.1 elap:               0.3
 (Enter /leonardo/prod/opt/applications/g16/c02/binary/g16/l103.exe)

 GradGradGradGradGradGradGradGradGradGradGradGradGradGradGradGradGradGrad
 Berny optimization.
 FormGI is forming the generalized inverse of G from B-inverse, IUseBI=4.
 Internal  Forces:  Max     0.007905816 RMS     0.002930554
 Search for a local minimum.
 Step number   1 out of a maximum of   38
 All quantities printed in internal units (Hartrees-Bohrs-Radians)
 RMS Force = .29306D-02 SwitMx=.10000D-02 MixMth= 1
 Mixed Optimization -- RFO/linear search
 Second derivative matrix not updated -- first step.
 ITU=  0
     Eigenvalues ---    0.00479   0.05673   0.05673   0.05673   0.05673
     Eigenvalues ---    0.16000   0.16000   0.16000   0.16000   0.16000
     Eigenvalues ---    0.16000   0.30206   0.35083   0.35083   0.35083
     Eigenvalues ---    0.35083   0.35083   0.35083
 RFO step:  Lambda=-8.91403798D-04 EMin= 4.79262401D-03
 Linear search not attempted -- first point.
 Iteration  1 RMS(Cart)=  0.01984742 RMS(Int)=  0.00008370
 Iteration  2 RMS(Cart)=  0.00007927 RMS(Int)=  0.00005195
 Iteration  3 RMS(Cart)=  0.00000001 RMS(Int)=  0.00005195
 ITry= 1 IFail=0 DXMaxC= 4.23D-02 DCOld= 1.00D+10 DXMaxT= 3.00D-01 DXLimC= 3.00D+00 Rises=F
 ClnCor:  largest displacement from symmetrization is 7.61D-11 for atom     5.
 Variable       Old X    -DE/DX   Delta X   Delta X   Delta X     New X
                                 (Linear)    (Quad)   (Total)
    R1        2.87554   0.00791   0.00000   0.02610   0.02610   2.90164
    R2        2.05540   0.00456   0.00000   0.01297   0.01297   2.06837
    R3        2.05540   0.00456   0.00000   0.01297   0.01297   2.06837
    R4        2.05540   0.00456   0.00000   0.01297   0.01297   2.06837
    R5        2.05540   0.00456   0.00000   0.01297   0.01297   2.06837
    R6        2.05540   0.00456   0.00000   0.01297   0.01297   2.06837
    R7        2.05540   0.00456   0.00000   0.01297   0.01297   2.06837
    A1        1.93020   0.00206   0.00000   0.01281   0.01273   1.94294
    A2        1.93020   0.00206   0.00000   0.01281   0.01273   1.94294
    A3        1.93020   0.00206   0.00000   0.01281   0.01273   1.94294
    A4        1.89066  -0.00215   0.00000  -0.01333  -0.01341   1.87725
    A5        1.89066  -0.00215   0.00000  -0.01333  -0.01341   1.87725
    A6        1.89066  -0.00215   0.00000  -0.01333  -0.01341   1.87725
    A7        1.93020   0.00206   0.00000   0.01281   0.01273   1.94294
    A8        1.93020   0.00206   0.00000   0.01281   0.01273   1.94294
    A9        1.93020   0.00206   0.00000   0.01281   0.01273   1.94294
   A10        1.89066  -0.00215   0.00000  -0.01333  -0.01341   1.87725
   A11        1.89066  -0.00215   0.00000  -0.01333  -0.01341   1.87725
   A12        1.89066  -0.00215   0.00000  -0.01333  -0.01341   1.87725
    D1        1.04720  -0.00000   0.00000  -0.00000  -0.00000   1.04720
    D2       -1.04720  -0.00000   0.00000  -0.00000  -0.00000  -1.04720
    D3       -3.14159  -0.00000   0.00000  -0.00000  -0.00000  -3.14159
    D4       -1.04720  -0.00000   0.00000  -0.00000  -0.00000  -1.04720
    D5       -3.14159  -0.00000   0.00000  -0.00000  -0.00000  -3.14159
    D6        1.04720  -0.00000   0.00000  -0.00000  -0.00000   1.04720
    D7       -3.14159  -0.00000   0.00000  -0.00000  -0.00000  -3.14159
    D8        1.04720  -0.00000   0.00000  -0.00000  -0.00000   1.04720
    D9       -1.04720  -0.00000   0.00000  -0.00000  -0.00000  -1.04720
         Item               Value     Threshold  Converged?
 Maximum Force            0.007906     0.000450     NO 
 RMS     Force            0.002931     0.000300     NO 
 Maximum Displacement     0.042285     0.001800     NO 
 RMS     Displacement     0.019884     0.001200     NO 
 Predicted change in Energy=-4.473635D-04
 Lowest energy point so far.  Saving SCF results.
 GradGradGradGradGradGradGradGradGradGradGradGradGradGradGradGradGradGrad

 Leave Link  103 at Wed Apr  8 17:10:13 2026, MaxMem=  1610612736 cpu:               0.2 elap:               1.3
 (Enter /leonardo/prod/opt/applications/g16/c02/binary/g16/l202.exe)
                          Input orientation:                          
 ---------------------------------------------------------------------
 Center     Atomic      Atomic             Coordinates (Angstroms)
 Number     Number       Type             X           Y           Z
 ---------------------------------------------------------------------
      1          6           0        0.766723    0.006022    0.039069
      2          6           0       -0.766723   -0.006022   -0.039069
      3          1           0        1.216231   -0.275895   -0.918256
      4          1           0        1.132231   -0.696115    0.794989
      5          1           0        1.144073    0.999442    0.301234
      6          1           0       -1.144073   -0.999443   -0.301233
      7          1           0       -1.132231    0.696115   -0.794989
      8          1           0       -1.216231    0.275896    0.918256
 ---------------------------------------------------------------------
                    Distance matrix (angstroms):
                    1          2          3          4          5
     1  C    0.000000
     2  C    1.535482   0.000000
     3  H    1.094535   2.185842   0.000000
     4  H    1.094535   2.185842   1.766026   0.000000
     5  H    1.094535   2.185842   1.766026   1.766026   0.000000
     6  H    2.185842   1.094535   2.544656   2.544656   3.097438
     7  H    2.185842   1.094535   2.544656   3.097438   2.544656
     8  H    2.185842   1.094535   3.097438   2.544656   2.544656
                    6          7          8
     6  H    0.000000
     7  H    1.766026   0.000000
     8  H    1.766026   1.766026   0.000000
 Stoichiometry    C2H6
 Framework group  D3[C3(C.C),X(H6)]
 Deg. of freedom     4
 Full point group                 D3      NOp   6
 RotChk:  IX=3 Diff= 1.41D+00
 Largest Abelian subgroup         C2      NOp   2
 Largest concise Abelian subgroup C2      NOp   2
                         Standard orientation:                         
 ---------------------------------------------------------------------
 Center     Atomic      Atomic             Coordinates (Angstroms)
 Number     Number       Type             X           Y           Z
 ---------------------------------------------------------------------
      1          6           0        0.000000    0.000000    0.767741
      2          6           0       -0.000000    0.000000   -0.767741
      3          1           0       -0.509807   -0.883014    1.165725
      4          1           0       -0.509808    0.883013    1.165725
      5          1           0        1.019616    0.000001    1.165725
      6          1           0       -1.019616    0.000001   -1.165725
      7          1           0        0.509807   -0.883014   -1.165725
      8          1           0        0.509808    0.883013   -1.165725
 ---------------------------------------------------------------------
 Rotational constants (GHZ):          80.3910382          19.8135244          19.8135244
 Leave Link  202 at Wed Apr  8 17:10:14 2026, MaxMem=  1610612736 cpu:               0.2 elap:               0.3
 (Enter /leonardo/prod/opt/applications/g16/c02/binary/g16/l301.exe)
 Standard basis: 6-31G(2df,p) (6D, 7F)
 Ernie: Thresh=  0.10000D-02 Tol=  0.10000D-05 Strict=F.
 There are    46 symmetry adapted cartesian basis functions of A   symmetry.
 There are    46 symmetry adapted cartesian basis functions of B   symmetry.
 There are    43 symmetry adapted basis functions of A   symmetry.
 There are    43 symmetry adapted basis functions of B   symmetry.
    86 basis functions,   130 primitive gaussians,    92 cartesian basis functions
     9 alpha electrons        9 beta electrons
       nuclear repulsion energy        42.0852426900 Hartrees.
 IExCor=  402 DFT=T Ex+Corr=B3LYP ExCW=0 ScaHFX=  0.200000
 ScaDFX=  0.800000  0.720000  1.000000  0.810000 ScalE2=  1.000000  1.000000
 IRadAn=      5 IRanWt=     -1 IRanGd=            0 ICorTp=0 IEmpDi=  4
 NAtoms=    8 NActive=    8 NUniq=    2 SFac= 4.00D+00 NAtFMM=   60 NAOKFM=F Big=F
 Integral buffers will be    131072 words long.
 Raffenetti 2 integral format.
 Two-electron integral symmetry is turned on.
 Leave Link  301 at Wed Apr  8 17:10:15 2026, MaxMem=  1610612736 cpu:               0.1 elap:               0.3
 (Enter /leonardo/prod/opt/applications/g16/c02/binary/g16/l302.exe)
 NPDir=0 NMtPBC=     1 NCelOv=     1 NCel=       1 NClECP=     1 NCelD=      1
         NCelK=      1 NCelE2=     1 NClLst=     1 CellRange=     0.0.
 One-electron integrals computed using PRISM.
 One-electron integral symmetry used in STVInt
 NBasis=    86 RedAO= T EigKep=  1.45D-03  NBF=    43    43
 NBsUse=    86 1.00D-06 EigRej= -1.00D+00 NBFU=    43    43
 Precomputing XC quadrature grid using
 IXCGrd= 4 IRadAn=           5 IRanWt=          -1 IRanGd=           0 AccXCQ= 0.00D+00.
 Generated NRdTot=       0 NPtTot=           0 NUsed=           0 NTot=          32
 NSgBfM=    92    92    92    92    92 MxSgAt=     8 MxSgA2=     8.
 Leave Link  302 at Wed Apr  8 17:10:16 2026, MaxMem=  1610612736 cpu:               0.9 elap:               0.5
 (Enter /leonardo/prod/opt/applications/g16/c02/binary/g16/l303.exe)
 DipDrv:  MaxL=1.
 Leave Link  303 at Wed Apr  8 17:10:17 2026, MaxMem=  1610612736 cpu:               0.2 elap:               0.3
 (Enter /leonardo/prod/opt/applications/g16/c02/binary/g16/l401.exe)
 Initial guess from the checkpoint file:  "file.chk"
 B after Tr=     0.000000   -0.000000   -0.000000
         Rot=    0.866025    0.000000   -0.000000   -0.500000 Ang= -60.00 deg.
 Guess basis will be translated and rotated to current coordinates.
 JPrj=2 DoOrth=T DoCkMO=T.
 Initial guess orbital symmetries:
       Occupied  (A1) (A2) (A1) (A2) (E) (E) (A1) (E) (E)
       Virtual   (A1) (A2) (E) (E) (E) (E) (A2) (A1) (E) (E) (E)
                 (E) (A2) (E) (E) (E) (E) (E) (E) (A1) (A2) (A1)
                 (E) (E) (A2) (A2) (E) (E) (A1) (E) (E) (A1) (A2)
                 (E) (E) (E) (E) (A2) (A1) (A1) (E) (E) (E) (E)
                 (A2) (E) (E) (E) (E) (A1) (A1) (A2) (A1) (E) (E)
                 (A2) (E) (E) (A2) (E) (E) (E) (E) (E) (E) (E)
                 (E) (A2) (A1) (E) (E) (E) (E) (A1) (A2) (A1) (A2)
 The electronic state of the initial guess is 1-A1.
 Generating alternative initial guess.
 ExpMin= 1.61D-01 ExpMax= 3.05D+03 ExpMxC= 4.57D+02 IAcc=3 IRadAn=         5 AccDes= 0.00D+00
 Harris functional with IExCor=  402 and IRadAn=       5 diagonalized for initial guess.
 HarFok:  IExCor=  402 AccDes= 0.00D+00 IRadAn=         5 IDoV= 1 UseB2=F ITyADJ=14
 ICtDFT=  3500011 ScaDFX=  1.000000  1.000000  1.000000  1.000000
 FoFCou: FMM=F IPFlag=           0 FMFlag=      100000 FMFlg1=           0
         NFxFlg=           0 DoJE=T BraDBF=F KetDBF=T FulRan=T
         wScrn=  0.000000 ICntrl=       500 IOpCl=  0 I1Cent=   200000004 NGrid=           0
         NMat0=    1 NMatS0=      1 NMatT0=    0 NMatD0=    1 NMtDS0=    0 NMtDT0=    0
 Petite list used in FoFCou.
 Harris En= -79.8906345424372    
 Leave Link  401 at Wed Apr  8 17:10:18 2026, MaxMem=  1610612736 cpu:               2.0 elap:               0.6
 (Enter /leonardo/prod/opt/applications/g16/c02/binary/g16/l502.exe)
 Keep R1 ints in memory in symmetry-blocked form, NReq=18026967.
 FoFCou: FMM=F IPFlag=           0 FMFlag=           0 FMFlg1=           0
         NFxFlg=           0 DoJE=F BraDBF=F KetDBF=F FulRan=T
         wScrn=  0.000000 ICntrl=       600 IOpCl=  0 I1Cent=           0 NGrid=           0
         NMat0=    1 NMatS0=   3741 NMatT0=    0 NMatD0=    1 NMtDS0=    0 NMtDT0=    0
 Petite list used in FoFCou.
 Closed shell SCF:
 Using DIIS extrapolation, IDIIS=  1040.
 NGot=  1610612736 LenX=  1607083919 LenY=  1607075014
 Requested convergence on RMS density matrix=1.00D-08 within 128 cycles.
 Requested convergence on MAX density matrix=1.00D-06.
 Requested convergence on             energy=1.00D-06.
 No special actions if energy rises.
 Integral accuracy reduced to 1.0D-05 until final iterations.
 An orbital has undefined symmetry, so N**3 symmetry is turned off.

 Cycle   1  Pass 0  IDiag  1:
 E= -79.8385886376367    
 DIIS: error= 1.13D-03 at cycle   1 NSaved=   1.
 NSaved= 1 IEnMin= 1 EnMin= -79.8385886376367     IErMin= 1 ErrMin= 1.13D-03
 ErrMax= 1.13D-03  0.00D+00 EMaxC= 1.00D-01 BMatC= 8.62D-05 BMatP= 8.62D-05
 IDIUse=3 WtCom= 9.89D-01 WtEn= 1.13D-02
 Coeff-Com:  0.100D+01
 Coeff-En:   0.100D+01
 Coeff:      0.100D+01
 Gap=     0.442 Goal=   None    Shift=    0.000
 GapD=    0.442 DampG=2.000 DampE=1.000 DampFc=2.0000 IDamp=-1.
 RMSDP=1.20D-04 MaxDP=1.90D-03              OVMax= 3.94D-03

 Cycle   2  Pass 0  IDiag  1:
 E= -79.8386512213782     Delta-E=       -0.000062583742 Rises=F Damp=F
 DIIS: error= 7.39D-04 at cycle   2 NSaved=   2.
 NSaved= 2 IEnMin= 2 EnMin= -79.8386512213782     IErMin= 2 ErrMin= 7.39D-04
 ErrMax= 7.39D-04  0.00D+00 EMaxC= 1.00D-01 BMatC= 2.43D-05 BMatP= 8.62D-05
 IDIUse=3 WtCom= 9.93D-01 WtEn= 7.39D-03
 Coeff-Com:  0.288D+00 0.712D+00
 Coeff-En:   0.000D+00 0.100D+01
 Coeff:      0.285D+00 0.715D+00
 Gap=     0.444 Goal=   None    Shift=    0.000
 RMSDP=8.21D-05 MaxDP=1.40D-03 DE=-6.26D-05 OVMax= 1.91D-03

 Cycle   3  Pass 0  IDiag  1:
 E= -79.8386682522497     Delta-E=       -0.000017030871 Rises=F Damp=F
 DIIS: error= 3.89D-04 at cycle   3 NSaved=   3.
 NSaved= 3 IEnMin= 3 EnMin= -79.8386682522497     IErMin= 3 ErrMin= 3.89D-04
 ErrMax= 3.89D-04  0.00D+00 EMaxC= 1.00D-01 BMatC= 8.39D-06 BMatP= 2.43D-05
 IDIUse=3 WtCom= 9.96D-01 WtEn= 3.89D-03
 Coeff-Com: -0.277D-02 0.369D+00 0.633D+00
 Coeff-En:   0.000D+00 0.256D+00 0.744D+00
 Coeff:     -0.276D-02 0.369D+00 0.634D+00
 Gap=     0.443 Goal=   None    Shift=    0.000
 RMSDP=2.90D-05 MaxDP=5.42D-04 DE=-1.70D-05 OVMax= 7.25D-04

 Cycle   4  Pass 0  IDiag  1:
 E= -79.8386769114855     Delta-E=       -0.000008659236 Rises=F Damp=F
 DIIS: error= 7.93D-06 at cycle   4 NSaved=   4.
 NSaved= 4 IEnMin= 4 EnMin= -79.8386769114855     IErMin= 4 ErrMin= 7.93D-06
 ErrMax= 7.93D-06  0.00D+00 EMaxC= 1.00D-01 BMatC= 1.84D-09 BMatP= 8.39D-06
 IDIUse=1 WtCom= 1.00D+00 WtEn= 0.00D+00
 Coeff-Com: -0.214D-02 0.290D-01 0.501D-01 0.923D+00
 Coeff:     -0.214D-02 0.290D-01 0.501D-01 0.923D+00
 Gap=     0.443 Goal=   None    Shift=    0.000
 RMSDP=5.26D-07 MaxDP=1.16D-05 DE=-8.66D-06 OVMax= 1.48D-05

 Initial convergence to 1.0D-05 achieved.  Increase integral accuracy.
 Cycle   5  Pass 1  IDiag  1:
 E= -79.8386799709262     Delta-E=       -0.000003059441 Rises=F Damp=F
 DIIS: error= 2.50D-06 at cycle   1 NSaved=   1.
 NSaved= 1 IEnMin= 1 EnMin= -79.8386799709262     IErMin= 1 ErrMin= 2.50D-06
 ErrMax= 2.50D-06  0.00D+00 EMaxC= 1.00D-01 BMatC= 2.06D-10 BMatP= 2.06D-10
 IDIUse=1 WtCom= 1.00D+00 WtEn= 0.00D+00
 Coeff-Com:  0.100D+01
 Coeff:      0.100D+01
 Gap=     0.443 Goal=   None    Shift=    0.000
 RMSDP=5.26D-07 MaxDP=1.16D-05 DE=-3.06D-06 OVMax= 5.82D-06

 Cycle   6  Pass 1  IDiag  1:
 E= -79.8386799711043     Delta-E=       -0.000000000178 Rises=F Damp=F
 DIIS: error= 8.98D-07 at cycle   2 NSaved=   2.
 NSaved= 2 IEnMin= 2 EnMin= -79.8386799711043     IErMin= 2 ErrMin= 8.98D-07
 ErrMax= 8.98D-07  0.00D+00 EMaxC= 1.00D-01 BMatC= 3.59D-11 BMatP= 2.06D-10
 IDIUse=1 WtCom= 1.00D+00 WtEn= 0.00D+00
 Coeff-Com:  0.282D+00 0.718D+00
 Coeff:      0.282D+00 0.718D+00
 Gap=     0.443 Goal=   None    Shift=    0.000
 RMSDP=6.19D-08 MaxDP=7.82D-07 DE=-1.78D-10 OVMax= 2.04D-06

 Cycle   7  Pass 1  IDiag  1:
 E= -79.8386799711392     Delta-E=       -0.000000000035 Rises=F Damp=F
 DIIS: error= 1.21D-07 at cycle   3 NSaved=   3.
 NSaved= 3 IEnMin= 3 EnMin= -79.8386799711392     IErMin= 3 ErrMin= 1.21D-07
 ErrMax= 1.21D-07  0.00D+00 EMaxC= 1.00D-01 BMatC= 6.63D-13 BMatP= 3.59D-11
 IDIUse=1 WtCom= 1.00D+00 WtEn= 0.00D+00
 Coeff-Com:  0.244D-01 0.121D+00 0.855D+00
 Coeff:      0.244D-01 0.121D+00 0.855D+00
 Gap=     0.443 Goal=   None    Shift=    0.000
 RMSDP=1.47D-08 MaxDP=2.57D-07 DE=-3.49D-11 OVMax= 3.35D-07

 Cycle   8  Pass 1  IDiag  1:
 E= -79.8386799711397     Delta-E=       -0.000000000000 Rises=F Damp=F
 DIIS: error= 9.31D-08 at cycle   4 NSaved=   4.
 NSaved= 4 IEnMin= 4 EnMin= -79.8386799711397     IErMin= 4 ErrMin= 9.31D-08
 ErrMax= 9.31D-08  0.00D+00 EMaxC= 1.00D-01 BMatC= 3.99D-13 BMatP= 6.63D-13
 IDIUse=1 WtCom= 1.00D+00 WtEn= 0.00D+00
 Coeff-Com: -0.456D-02 0.196D-01 0.466D+00 0.519D+00
 Coeff:     -0.456D-02 0.196D-01 0.466D+00 0.519D+00
 Gap=     0.443 Goal=   None    Shift=    0.000
 RMSDP=6.35D-09 MaxDP=1.14D-07 DE=-4.97D-13 OVMax= 1.60D-07

 SCF Done:  E(RB3LYP) =  -79.8386799711     A.U. after    8 cycles
            NFock=  8  Conv=0.63D-08     -V/T= 2.0101
 KE= 7.904356823559D+01 PE=-2.680711656025D+02 EE= 6.710367470579D+01
 Leave Link  502 at Wed Apr  8 17:10:21 2026, MaxMem=  1610612736 cpu:               4.0 elap:               1.8
 (Enter /leonardo/prod/opt/applications/g16/c02/binary/g16/l701.exe)
 ... and contract with generalized density number  0.
 Compute integral first derivatives.
 Leave Link  701 at Wed Apr  8 17:10:22 2026, MaxMem=  1610612736 cpu:               1.5 elap:               0.5
 (Enter /leonardo/prod/opt/applications/g16/c02/binary/g16/l702.exe)
 L702 exits ... SP integral derivatives will be done elsewhere.
 Leave Link  702 at Wed Apr  8 17:10:23 2026, MaxMem=  1610612736 cpu:               0.1 elap:               0.2
 (Enter /leonardo/prod/opt/applications/g16/c02/binary/g16/l703.exe)
 Integral derivatives from FoFJK, PRISM(SPDF).
 Compute integral first derivatives, UseDBF=F ICtDFT=           0.
 Calling FoFJK, ICntrl=      2127 FMM=F ISym2X=1 I1Cent= 0 IOpClX= 0 NMat=1 NMatS=1 NMatT=0.
 FoFJK:  IHMeth= 1 ICntrl=    2127 DoSepK=F KAlg= 0 I1Cent=           0 FoldK=F
 IRaf=         0 NMat=       1 IRICut=       1 DoRegI=T DoRafI=F ISym2E= 1 IDoP0=0 IntGTp=1.
 FoFCou: FMM=F IPFlag=           0 FMFlag=      100000 FMFlg1=         800
         NFxFlg=           0 DoJE=F BraDBF=F KetDBF=F FulRan=T
         wScrn=  0.000000 ICntrl=      2127 IOpCl=  0 I1Cent=           0 NGrid=           0
         NMat0=    1 NMatS0=      1 NMatT0=    0 NMatD0=    1 NMtDS0=    0 NMtDT0=    0
 Petite list used in FoFCou.
 Leave Link  703 at Wed Apr  8 17:10:25 2026, MaxMem=  1610612736 cpu:               4.9 elap:               0.9
 (Enter /leonardo/prod/opt/applications/g16/c02/binary/g16/l716.exe)
 Dipole        = 1.44328993D-15 8.88178420D-16 4.44089210D-16
 ***** Axes restored to original set *****
 -------------------------------------------------------------------
 Center     Atomic                   Forces (Hartrees/Bohr)
 Number     Number              X              Y              Z
 -------------------------------------------------------------------
      1        6          -0.002735472   -0.000021486   -0.000139390
      2        6           0.002735472    0.000021486    0.000139390
      3        1           0.000015253   -0.000036250   -0.000124250
      4        1           0.000004541   -0.000089907    0.000094239
      5        1           0.000006048    0.000126360    0.000031328
      6        1          -0.000006051   -0.000126377   -0.000031256
      7        1          -0.000004538    0.000089853   -0.000094290
      8        1          -0.000015252    0.000036321    0.000124229
 -------------------------------------------------------------------
 Cartesian Forces:  Max     0.002735472 RMS     0.000793392
 Leave Link  716 at Wed Apr  8 17:10:26 2026, MaxMem=  1610612736 cpu:               0.2 elap:               0.3
 (Enter /leonardo/prod/opt/applications/g16/c02/binary/g16/l103.exe)

 GradGradGradGradGradGradGradGradGradGradGradGradGradGradGradGradGradGrad
 Berny optimization.
 Using GEDIIS/GDIIS optimizer.
 FormGI is forming the generalized inverse of G from B-inverse, IUseBI=4.
 Internal  Forces:  Max     0.002713230 RMS     0.000516610
 Search for a local minimum.
 Step number   2 out of a maximum of   38
 All quantities printed in internal units (Hartrees-Bohrs-Radians)
 RMS Force = .51661D-03 SwitMx=.10000D-02 MixMth= 2
 Mixed Optimization -- En-DIIS/RFO-DIIS
 Update second derivatives using D2CorX and points    1    2
 DE= -4.08D-04 DEPred=-4.47D-04 R= 9.12D-01
 TightC=F SS=  1.41D+00  RLast= 6.12D-02 DXNew= 5.0454D-01 1.8351D-01
 Trust test= 9.12D-01 RLast= 6.12D-02 DXMaxT set to 3.00D-01
 ITU=  1  0
 Use linear search instead of GDIIS.
     Eigenvalues ---    0.00479   0.05541   0.05541   0.05541   0.05541
     Eigenvalues ---    0.15625   0.16000   0.16000   0.16000   0.16000
     Eigenvalues ---    0.16000   0.32064   0.35083   0.35083   0.35083
     Eigenvalues ---    0.35083   0.35083   0.36535
 RFO step:  Lambda=-1.69005187D-05 EMin= 4.79262401D-03
 Quartic linear search produced a step of -0.07191.
 Iteration  1 RMS(Cart)=  0.00204541 RMS(Int)=  0.00000365
 Iteration  2 RMS(Cart)=  0.00000000 RMS(Int)=  0.00000365
 ITry= 1 IFail=0 DXMaxC= 3.93D-03 DCOld= 1.00D+10 DXMaxT= 3.00D-01 DXLimC= 3.00D+00 Rises=F
 ClnCor:  largest displacement from symmetrization is 2.69D-11 for atom     5.
 Variable       Old X    -DE/DX   Delta X   Delta X   Delta X     New X
                                 (Linear)    (Quad)   (Total)
    R1        2.90164  -0.00271  -0.00188  -0.00600  -0.00787   2.89377
    R2        2.06837   0.00012  -0.00093   0.00149   0.00056   2.06893
    R3        2.06837   0.00012  -0.00093   0.00149   0.00056   2.06893
    R4        2.06837   0.00012  -0.00093   0.00149   0.00056   2.06893
    R5        2.06837   0.00012  -0.00093   0.00149   0.00056   2.06893
    R6        2.06837   0.00012  -0.00093   0.00149   0.00056   2.06893
    R7        2.06837   0.00012  -0.00093   0.00149   0.00056   2.06893
    A1        1.94294  -0.00004  -0.00092   0.00090  -0.00001   1.94293
    A2        1.94294  -0.00004  -0.00092   0.00090  -0.00001   1.94293
    A3        1.94294  -0.00004  -0.00092   0.00090  -0.00001   1.94293
    A4        1.87725   0.00004   0.00096  -0.00096   0.00001   1.87726
    A5        1.87725   0.00004   0.00096  -0.00096   0.00001   1.87726
    A6        1.87725   0.00004   0.00096  -0.00096   0.00001   1.87726
    A7        1.94294  -0.00004  -0.00092   0.00090  -0.00001   1.94293
    A8        1.94294  -0.00004  -0.00092   0.00090  -0.00001   1.94293
    A9        1.94294  -0.00004  -0.00092   0.00090  -0.00001   1.94293
   A10        1.87725   0.00004   0.00096  -0.00096   0.00001   1.87726
   A11        1.87725   0.00004   0.00096  -0.00096   0.00001   1.87726
   A12        1.87725   0.00004   0.00096  -0.00096   0.00001   1.87726
    D1        1.04720   0.00000   0.00000   0.00000   0.00000   1.04720
    D2       -1.04720   0.00000   0.00000   0.00000   0.00000  -1.04719
    D3       -3.14159   0.00000   0.00000   0.00000   0.00000  -3.14159
    D4       -1.04720   0.00000   0.00000   0.00000   0.00000  -1.04719
    D5       -3.14159   0.00000   0.00000   0.00000   0.00000  -3.14159
    D6        1.04720   0.00000   0.00000   0.00000   0.00000   1.04720
    D7       -3.14159   0.00000   0.00000   0.00000   0.00000  -3.14159
    D8        1.04720   0.00000   0.00000   0.00000   0.00000   1.04720
    D9       -1.04720   0.00000   0.00000   0.00000   0.00000  -1.04719
         Item               Value     Threshold  Converged?
 Maximum Force            0.002713     0.000450     NO 
 RMS     Force            0.000517     0.000300     NO 
 Maximum Displacement     0.003931     0.001800     NO 
 RMS     Displacement     0.002045     0.001200     NO 
 Predicted change in Energy=-1.085723D-05
 Lowest energy point so far.  Saving SCF results.
 GradGradGradGradGradGradGradGradGradGradGradGradGradGradGradGradGradGrad

 Leave Link  103 at Wed Apr  8 17:10:27 2026, MaxMem=  1610612736 cpu:               0.0 elap:               0.3
 (Enter /leonardo/prod/opt/applications/g16/c02/binary/g16/l202.exe)
                          Input orientation:                          
 ---------------------------------------------------------------------
 Center     Atomic      Atomic             Coordinates (Angstroms)
 Number     Number       Type             X           Y           Z
 ---------------------------------------------------------------------
      1          6           0        0.764642    0.006006    0.038963
      2          6           0       -0.764642   -0.006006   -0.038963
      3          1           0        1.214263   -0.275987   -0.918627
      4          1           0        1.130240   -0.696327    0.795088
      5          1           0        1.142085    0.999699    0.301202
      6          1           0       -1.142085   -0.999700   -0.301197
      7          1           0       -1.130239    0.696322   -0.795092
      8          1           0       -1.214263    0.275992    0.918625
 ---------------------------------------------------------------------
                    Distance matrix (angstroms):
                    1          2          3          4          5
     1  C    0.000000
     2  C    1.531316   0.000000
     3  H    1.094832   2.182375   0.000000
     4  H    1.094832   2.182375   1.766512   0.000000
     5  H    1.094832   2.182375   1.766512   1.766512   0.000000
     6  H    2.182375   1.094832   2.541133   2.541129   3.094820
     7  H    2.182375   1.094832   2.541129   3.094820   2.541133
     8  H    2.182375   1.094832   3.094820   2.541133   2.541129
                    6          7          8
     6  H    0.000000
     7  H    1.766512   0.000000
     8  H    1.766512   1.766512   0.000000
 Stoichiometry    C2H6
 Framework group  D3[C3(C.C),X(H6)]
 Deg. of freedom     4
 Full point group                 D3      NOp   6
 RotChk:  IX=3 Diff= 7.88D-16
 Largest Abelian subgroup         C2      NOp   2
 Largest concise Abelian subgroup C2      NOp   2
                         Standard orientation:                         
 ---------------------------------------------------------------------
 Center     Atomic      Atomic             Coordinates (Angstroms)
 Number     Number       Type             X           Y           Z
 ---------------------------------------------------------------------
      1          6           0       -0.000000    0.000000    0.765658
      2          6           0       -0.000000    0.000000   -0.765658
      3          1           0       -0.509946   -0.883258    1.163739
      4          1           0       -0.509951    0.883255    1.163739
      5          1           0        1.019896    0.000003    1.163739
      6          1           0       -1.019896    0.000003   -1.163739
      7          1           0        0.509946   -0.883258   -1.163739
      8          1           0        0.509951    0.883255   -1.163739
 ---------------------------------------------------------------------
 Rotational constants (GHZ):          80.3468197          19.8937816          19.8937816
 Leave Link  202 at Wed Apr  8 17:10:28 2026, MaxMem=  1610612736 cpu:               0.0 elap:               0.3
 (Enter /leonardo/prod/opt/applications/g16/c02/binary/g16/l301.exe)
 Standard basis: 6-31G(2df,p) (6D, 7F)
 Ernie: Thresh=  0.10000D-02 Tol=  0.10000D-05 Strict=F.
 There are    46 symmetry adapted cartesian basis functions of A   symmetry.
 There are    46 symmetry adapted cartesian basis functions of B   symmetry.
 There are    43 symmetry adapted basis functions of A   symmetry.
 There are    43 symmetry adapted basis functions of B   symmetry.
    86 basis functions,   130 primitive gaussians,    92 cartesian basis functions
     9 alpha electrons        9 beta electrons
       nuclear repulsion energy        42.1297945834 Hartrees.
 IExCor=  402 DFT=T Ex+Corr=B3LYP ExCW=0 ScaHFX=  0.200000
 ScaDFX=  0.800000  0.720000  1.000000  0.810000 ScalE2=  1.000000  1.000000
 IRadAn=      5 IRanWt=     -1 IRanGd=            0 ICorTp=0 IEmpDi=  4
 NAtoms=    8 NActive=    8 NUniq=    2 SFac= 4.00D+00 NAtFMM=   60 NAOKFM=F Big=F
 Integral buffers will be    131072 words long.
 Raffenetti 2 integral format.
 Two-electron integral symmetry is turned on.
 Leave Link  301 at Wed Apr  8 17:10:30 2026, MaxMem=  1610612736 cpu:               0.1 elap:               0.4
 (Enter /leonardo/prod/opt/applications/g16/c02/binary/g16/l302.exe)
 NPDir=0 NMtPBC=     1 NCelOv=     1 NCel=       1 NClECP=     1 NCelD=      1
         NCelK=      1 NCelE2=     1 NClLst=     1 CellRange=     0.0.
 One-electron integrals computed using PRISM.
 One-electron integral symmetry used in STVInt
 NBasis=    86 RedAO= T EigKep=  1.45D-03  NBF=    43    43
 NBsUse=    86 1.00D-06 EigRej= -1.00D+00 NBFU=    43    43
 Precomputing XC quadrature grid using
 IXCGrd= 4 IRadAn=           5 IRanWt=          -1 IRanGd=           0 AccXCQ= 0.00D+00.
 Generated NRdTot=       0 NPtTot=           0 NUsed=           0 NTot=          32
 NSgBfM=    92    92    92    92    92 MxSgAt=     8 MxSgA2=     8.
 Leave Link  302 at Wed Apr  8 17:10:31 2026, MaxMem=  1610612736 cpu:               0.9 elap:               0.4
 (Enter /leonardo/prod/opt/applications/g16/c02/binary/g16/l303.exe)
 DipDrv:  MaxL=1.
 Leave Link  303 at Wed Apr  8 17:10:32 2026, MaxMem=  1610612736 cpu:               0.2 elap:               0.3
 (Enter /leonardo/prod/opt/applications/g16/c02/binary/g16/l401.exe)
 Initial guess from the checkpoint file:  "file.chk"
 B after Tr=     0.000000    0.000000   -0.000000
         Rot=    1.000000   -0.000000    0.000000    0.000000 Ang=   0.00 deg.
 Guess basis will be translated and rotated to current coordinates.
 JPrj=2 DoOrth=T DoCkMO=T.
 Initial guess orbital symmetries:
       Occupied  (A1) (A2) (A1) (A2) (E) (E) (A1) (E) (E)
       Virtual   (A1) (A2) (E) (E) (E) (E) (A2) (A1) (E) (E) (E)
                 (E) (A2) (E) (E) (E) (E) (E) (E) (A1) (A2) (A1)
                 (E) (E) (A2) (A2) (E) (E) (A1) (E) (E) (A1) (A2)
                 (E) (E) (E) (E) (A2) (A1) (A1) (E) (E) (E) (E)
                 (A2) (E) (E) (E) (E) (A1) (A1) (A2) (A1) (E) (E)
                 (A2) (E) (E) (A2) (E) (E) (E) (E) (E) (E) (E)
                 (E) (A2) (A1) (E) (E) (E) (E) (A1) (A2) (A1) (A2)
 The electronic state of the initial guess is 1-A1.
 Leave Link  401 at Wed Apr  8 17:10:33 2026, MaxMem=  1610612736 cpu:               0.3 elap:               0.5
 (Enter /leonardo/prod/opt/applications/g16/c02/binary/g16/l502.exe)
 Keep R1 ints in memory in symmetry-blocked form, NReq=18026967.
 FoFCou: FMM=F IPFlag=           0 FMFlag=           0 FMFlg1=           0
         NFxFlg=           0 DoJE=F BraDBF=F KetDBF=F FulRan=T
         wScrn=  0.000000 ICntrl=       600 IOpCl=  0 I1Cent=           0 NGrid=           0
         NMat0=    1 NMatS0=   3741 NMatT0=    0 NMatD0=    1 NMtDS0=    0 NMtDT0=    0
 Petite list used in FoFCou.
 Closed shell SCF:
 Using DIIS extrapolation, IDIIS=  1040.
 NGot=  1610612736 LenX=  1607083919 LenY=  1607075014
 Requested convergence on RMS density matrix=1.00D-08 within 128 cycles.
 Requested convergence on MAX density matrix=1.00D-06.
 Requested convergence on             energy=1.00D-06.
 No special actions if energy rises.
 An orbital has undefined symmetry, so N**3 symmetry is turned off.

 Cycle   1  Pass 1  IDiag  1:
 E= -79.8386894722060    
 DIIS: error= 2.68D-04 at cycle   1 NSaved=   1.
 NSaved= 1 IEnMin= 1 EnMin= -79.8386894722060     IErMin= 1 ErrMin= 2.68D-04
 ErrMax= 2.68D-04  0.00D+00 EMaxC= 1.00D-01 BMatC= 2.34D-06 BMatP= 2.34D-06
 IDIUse=3 WtCom= 9.97D-01 WtEn= 2.68D-03
 Coeff-Com:  0.100D+01
 Coeff-En:   0.100D+01
 Coeff:      0.100D+01
 Gap=     0.443 Goal=   None    Shift=    0.000
 RMSDP=2.24D-05 MaxDP=3.80D-04              OVMax= 8.29D-04

 Cycle   2  Pass 1  IDiag  1:
 E= -79.8386927744924     Delta-E=       -0.000003302286 Rises=F Damp=F
 DIIS: error= 4.68D-05 at cycle   2 NSaved=   2.
 NSaved= 2 IEnMin= 2 EnMin= -79.8386927744924     IErMin= 2 ErrMin= 4.68D-05
 ErrMax= 4.68D-05  0.00D+00 EMaxC= 1.00D-01 BMatC= 9.52D-08 BMatP= 2.34D-06
 IDIUse=1 WtCom= 1.00D+00 WtEn= 0.00D+00
 Coeff-Com:  0.611D-01 0.939D+00
 Coeff:      0.611D-01 0.939D+00
 Gap=     0.443 Goal=   None    Shift=    0.000
 RMSDP=3.73D-06 MaxDP=6.66D-05 DE=-3.30D-06 OVMax= 1.08D-04

 Cycle   3  Pass 1  IDiag  1:
 E= -79.8386928153588     Delta-E=       -0.000000040866 Rises=F Damp=F
 DIIS: error= 3.27D-05 at cycle   3 NSaved=   3.
 NSaved= 3 IEnMin= 3 EnMin= -79.8386928153588     IErMin= 3 ErrMin= 3.27D-05
 ErrMax= 3.27D-05  0.00D+00 EMaxC= 1.00D-01 BMatC= 3.97D-08 BMatP= 9.52D-08
 IDIUse=1 WtCom= 1.00D+00 WtEn= 0.00D+00
 Coeff-Com: -0.875D-02 0.377D+00 0.631D+00
 Coeff:     -0.875D-02 0.377D+00 0.631D+00
 Gap=     0.443 Goal=   None    Shift=    0.000
 RMSDP=2.45D-06 MaxDP=4.25D-05 DE=-4.09D-08 OVMax= 6.69D-05

 Cycle   4  Pass 1  IDiag  1:
 E= -79.8386928517239     Delta-E=       -0.000000036365 Rises=F Damp=F
 DIIS: error= 9.06D-06 at cycle   4 NSaved=   4.
 NSaved= 4 IEnMin= 4 EnMin= -79.8386928517239     IErMin= 4 ErrMin= 9.06D-06
 ErrMax= 9.06D-06  0.00D+00 EMaxC= 1.00D-01 BMatC= 4.04D-09 BMatP= 3.97D-08
 IDIUse=1 WtCom= 1.00D+00 WtEn= 0.00D+00
 Coeff-Com: -0.587D-02 0.869D-01 0.291D+00 0.628D+00
 Coeff:     -0.587D-02 0.869D-01 0.291D+00 0.628D+00
 Gap=     0.443 Goal=   None    Shift=    0.000
 RMSDP=7.41D-07 MaxDP=1.26D-05 DE=-3.64D-08 OVMax= 1.73D-05

 Cycle   5  Pass 1  IDiag  1:
 E= -79.8386928559841     Delta-E=       -0.000000004260 Rises=F Damp=F
 DIIS: error= 7.35D-07 at cycle   5 NSaved=   5.
 NSaved= 5 IEnMin= 5 EnMin= -79.8386928559841     IErMin= 5 ErrMin= 7.35D-07
 ErrMax= 7.35D-07  0.00D+00 EMaxC= 1.00D-01 BMatC= 2.11D-11 BMatP= 4.04D-09
 IDIUse=1 WtCom= 1.00D+00 WtEn= 0.00D+00
 Coeff-Com: -0.776D-03 0.129D-02 0.375D-01 0.123D+00 0.839D+00
 Coeff:     -0.776D-03 0.129D-02 0.375D-01 0.123D+00 0.839D+00
 Gap=     0.443 Goal=   None    Shift=    0.000
 RMSDP=4.03D-08 MaxDP=6.82D-07 DE=-4.26D-09 OVMax= 1.46D-06

 Cycle   6  Pass 1  IDiag  1:
 E= -79.8386928560057     Delta-E=       -0.000000000022 Rises=F Damp=F
 DIIS: error= 2.34D-08 at cycle   6 NSaved=   6.
 NSaved= 6 IEnMin= 6 EnMin= -79.8386928560057     IErMin= 6 ErrMin= 2.34D-08
 ErrMax= 2.34D-08  0.00D+00 EMaxC= 1.00D-01 BMatC= 1.59D-14 BMatP= 2.11D-11
 IDIUse=1 WtCom= 1.00D+00 WtEn= 0.00D+00
 Coeff-Com:  0.239D-04-0.422D-03-0.169D-02-0.232D-02 0.592D-03 0.100D+01
 Coeff:      0.239D-04-0.422D-03-0.169D-02-0.232D-02 0.592D-03 0.100D+01
 Gap=     0.443 Goal=   None    Shift=    0.000
 RMSDP=1.51D-09 MaxDP=2.77D-08 DE=-2.16D-11 OVMax= 5.55D-08

 SCF Done:  E(RB3LYP) =  -79.8386928560     A.U. after    6 cycles
            NFock=  6  Conv=0.15D-08     -V/T= 2.0100
 KE= 7.904802108728D+01 PE=-2.681631834818D+02 EE= 6.714667495513D+01
 Leave Link  502 at Wed Apr  8 17:10:36 2026, MaxMem=  1610612736 cpu:               4.1 elap:               1.5
 (Enter /leonardo/prod/opt/applications/g16/c02/binary/g16/l701.exe)
 ... and contract with generalized density number  0.
 Compute integral first derivatives.
 Leave Link  701 at Wed Apr  8 17:10:37 2026, MaxMem=  1610612736 cpu:               1.3 elap:               0.4
 (Enter /leonardo/prod/opt/applications/g16/c02/binary/g16/l702.exe)
 L702 exits ... SP integral derivatives will be done elsewhere.
 Leave Link  702 at Wed Apr  8 17:10:39 2026, MaxMem=  1610612736 cpu:               0.2 elap:               0.6
 (Enter /leonardo/prod/opt/applications/g16/c02/binary/g16/l703.exe)
 Integral derivatives from FoFJK, PRISM(SPDF).
 Compute integral first derivatives, UseDBF=F ICtDFT=           0.
 Calling FoFJK, ICntrl=      2127 FMM=F ISym2X=1 I1Cent= 0 IOpClX= 0 NMat=1 NMatS=1 NMatT=0.
 FoFJK:  IHMeth= 1 ICntrl=    2127 DoSepK=F KAlg= 0 I1Cent=           0 FoldK=F
 IRaf=         0 NMat=       1 IRICut=       1 DoRegI=T DoRafI=F ISym2E= 1 IDoP0=0 IntGTp=1.
 FoFCou: FMM=F IPFlag=           0 FMFlag=      100000 FMFlg1=         800
         NFxFlg=           0 DoJE=F BraDBF=F KetDBF=F FulRan=T
         wScrn=  0.000000 ICntrl=      2127 IOpCl=  0 I1Cent=           0 NGrid=           0
         NMat0=    1 NMatS0=      1 NMatT0=    0 NMatD0=    1 NMtDS0=    0 NMtDT0=    0
 Petite list used in FoFCou.
 Leave Link  703 at Wed Apr  8 17:10:41 2026, MaxMem=  1610612736 cpu:               4.6 elap:               1.0
 (Enter /leonardo/prod/opt/applications/g16/c02/binary/g16/l716.exe)
 Dipole        = 2.22044605D-15 2.22044605D-15-1.33226763D-15
 ***** Axes restored to original set *****
 -------------------------------------------------------------------
 Center     Atomic                   Forces (Hartrees/Bohr)
 Number     Number              X              Y              Z
 -------------------------------------------------------------------
      1        6          -0.000742970   -0.000005836   -0.000037859
      2        6           0.000742970    0.000005836    0.000037859
      3        1           0.000075323    0.000015769    0.000055882
      4        1           0.000079784    0.000038047   -0.000035099
      5        1           0.000079153   -0.000051976   -0.000008846
      6        1          -0.000079155    0.000051966    0.000008887
      7        1          -0.000079782   -0.000038077    0.000035070
      8        1          -0.000075322   -0.000015729   -0.000055894
 -------------------------------------------------------------------
 Cartesian Forces:  Max     0.000742970 RMS     0.000219963
 Leave Link  716 at Wed Apr  8 17:10:42 2026, MaxMem=  1610612736 cpu:               0.1 elap:               0.2
 (Enter /leonardo/prod/opt/applications/g16/c02/binary/g16/l103.exe)

 GradGradGradGradGradGradGradGradGradGradGradGradGradGradGradGradGradGrad
 Berny optimization.
 Using GEDIIS/GDIIS optimizer.
 FormGI is forming the generalized inverse of G from B-inverse, IUseBI=4.
 Internal  Forces:  Max     0.000509386 RMS     0.000114223
 Search for a local minimum.
 Step number   3 out of a maximum of   38
 All quantities printed in internal units (Hartrees-Bohrs-Radians)
 RMS Force = .11422D-03 SwitMx=.10000D-02 MixMth= 2
 Mixed Optimization -- En-DIIS/RFO-DIIS
 Swapping is turned off.
 Update second derivatives using D2CorX and points    1    2    3
 DE= -1.29D-05 DEPred=-1.09D-05 R= 1.19D+00
 TightC=F SS=  1.41D+00  RLast= 7.99D-03 DXNew= 5.0454D-01 2.3977D-02
 Trust test= 1.19D+00 RLast= 7.99D-03 DXMaxT set to 3.00D-01
 ITU=  1  1  0
     Eigenvalues ---    0.00479   0.05541   0.05541   0.05541   0.05541
     Eigenvalues ---    0.14037   0.16000   0.16000   0.16000   0.16000
     Eigenvalues ---    0.16000   0.30211   0.34448   0.35083   0.35083
     Eigenvalues ---    0.35083   0.35083   0.35083
 En-DIIS/RFO-DIIS/Sim-DIIS IScMMF=       -3 using points:     3    2
 RFO step:  Lambda=-2.06580154D-06.
 NNeg= 0 NGDIIS= 2 SimSw=  2.50D-03 Rises=F DC= -1.29D-05 SmlDif=  1.00D-05
 NRisDI= 0 DoIntr=F SqrtH=F CThrHd= 10.0 CDAdj=  3.0
 RMS Error=  0.6809918697D-03 NUsed= 2 OKEnD=T EnDIS=F
 InvSVX:  RCond= 1.60D-05 Info=           0 Equed=N FErr=  1.80D-15 BErr=  4.12D-17
 DidBck=F Rises=F RFO-DIIS coefs:    1.28815   -0.28815
 Iteration  1 RMS(Cart)=  0.00042812 RMS(Int)=  0.00000035
 Iteration  2 RMS(Cart)=  0.00000039 RMS(Int)=  0.00000018
 ITry= 1 IFail=0 DXMaxC= 1.17D-03 DCOld= 1.00D+10 DXMaxT= 3.00D-01 DXLimC= 3.00D+00 Rises=F
 ClnCor:  largest displacement from symmetrization is 1.43D-11 for atom     7.
 Variable       Old X    -DE/DX   Delta X   Delta X   Delta X     New X
                                 (Linear)    (Quad)   (Total)
    R1        2.89377  -0.00051  -0.00227  -0.00007  -0.00234   2.89143
    R2        2.06893  -0.00002   0.00016  -0.00013   0.00003   2.06897
    R3        2.06893  -0.00002   0.00016  -0.00013   0.00003   2.06897
    R4        2.06893  -0.00002   0.00016  -0.00013   0.00003   2.06897
    R5        2.06893  -0.00002   0.00016  -0.00013   0.00003   2.06897
    R6        2.06893  -0.00002   0.00016  -0.00013   0.00003   2.06897
    R7        2.06893  -0.00002   0.00016  -0.00013   0.00003   2.06897
    A1        1.94293   0.00009  -0.00000   0.00077   0.00077   1.94369
    A2        1.94293   0.00009  -0.00000   0.00077   0.00077   1.94369
    A3        1.94293   0.00009  -0.00000   0.00077   0.00077   1.94369
    A4        1.87726  -0.00010   0.00000  -0.00082  -0.00082   1.87645
    A5        1.87726  -0.00010   0.00000  -0.00082  -0.00082   1.87645
    A6        1.87726  -0.00010   0.00000  -0.00082  -0.00082   1.87645
    A7        1.94293   0.00009  -0.00000   0.00077   0.00077   1.94369
    A8        1.94293   0.00009  -0.00000   0.00077   0.00077   1.94369
    A9        1.94293   0.00009  -0.00000   0.00077   0.00077   1.94369
   A10        1.87726  -0.00010   0.00000  -0.00082  -0.00082   1.87645
   A11        1.87726  -0.00010   0.00000  -0.00082  -0.00082   1.87645
   A12        1.87726  -0.00010   0.00000  -0.00082  -0.00082   1.87645
    D1        1.04720   0.00000   0.00000   0.00000   0.00000   1.04721
    D2       -1.04719   0.00000   0.00000   0.00000   0.00000  -1.04719
    D3       -3.14159   0.00000   0.00000   0.00000   0.00000  -3.14158
    D4       -1.04719   0.00000   0.00000   0.00000   0.00000  -1.04719
    D5       -3.14159   0.00000   0.00000   0.00000   0.00000  -3.14158
    D6        1.04720   0.00000   0.00000   0.00000   0.00000   1.04721
    D7       -3.14159   0.00000   0.00000   0.00000   0.00000  -3.14158
    D8        1.04720   0.00000   0.00000   0.00000   0.00000   1.04721
    D9       -1.04719   0.00000   0.00000   0.00000   0.00000  -1.04719
         Item               Value     Threshold  Converged?
 Maximum Force            0.000509     0.000450     NO 
 RMS     Force            0.000114     0.000300     YES
 Maximum Displacement     0.001167     0.001800     YES
 RMS     Displacement     0.000428     0.001200     YES
 Predicted change in Energy=-1.032912D-06
 Lowest energy point so far.  Saving SCF results.
 GradGradGradGradGradGradGradGradGradGradGradGradGradGradGradGradGradGrad

 Leave Link  103 at Wed Apr  8 17:10:43 2026, MaxMem=  1610612736 cpu:               0.0 elap:               0.1
 (Enter /leonardo/prod/opt/applications/g16/c02/binary/g16/l202.exe)
                          Input orientation:                          
 ---------------------------------------------------------------------
 Center     Atomic      Atomic             Coordinates (Angstroms)
 Number     Number       Type             X           Y           Z
 ---------------------------------------------------------------------
      1          6           0        0.764025    0.006001    0.038932
      2          6           0       -0.764025   -0.006001   -0.038932
      3          1           0        1.214416   -0.275903   -0.918342
      4          1           0        1.130417   -0.696127    0.794887
      5          1           0        1.142259    0.999419    0.301144
      6          1           0       -1.142259   -0.999421   -0.301135
      7          1           0       -1.130417    0.696120   -0.794894
      8          1           0       -1.214416    0.275912    0.918339
 ---------------------------------------------------------------------
                    Distance matrix (angstroms):
                    1          2          3          4          5
     1  C    0.000000
     2  C    1.530079   0.000000
     3  H    1.094849   2.181843   0.000000
     4  H    1.094849   2.181843   1.766011   0.000000
     5  H    1.094849   2.181843   1.766011   1.766011   0.000000
     6  H    2.181843   1.094849   2.541327   2.541320   3.094693
     7  H    2.181843   1.094849   2.541320   3.094693   2.541327
     8  H    2.181843   1.094849   3.094693   2.541327   2.541320
                    6          7          8
     6  H    0.000000
     7  H    1.766011   0.000000
     8  H    1.766011   1.766011   0.000000
 Stoichiometry    C2H6
 Framework group  D3[C3(C.C),X(H6)]
 Deg. of freedom     4
 Full point group                 D3      NOp   6
 RotChk:  IX=3 Diff= 7.66D-16
 Largest Abelian subgroup         C2      NOp   2
 Largest concise Abelian subgroup C2      NOp   2
                         Standard orientation:                         
 ---------------------------------------------------------------------
 Center     Atomic      Atomic             Coordinates (Angstroms)
 Number     Number       Type             X           Y           Z
 ---------------------------------------------------------------------
      1          6           0        0.000000   -0.000000    0.765039
      2          6           0       -0.000000   -0.000000   -0.765039
      3          1           0       -0.509799   -0.883008    1.163908
      4          1           0       -0.509808    0.883003    1.163908
      5          1           0        1.019607    0.000005    1.163908
      6          1           0       -1.019607    0.000005   -1.163908
      7          1           0        0.509799   -0.883008   -1.163908
      8          1           0        0.509808    0.883003   -1.163908
 ---------------------------------------------------------------------
 Rotational constants (GHZ):          80.3924296          19.9111213          19.9111213
 Leave Link  202 at Wed Apr  8 17:10:43 2026, MaxMem=  1610612736 cpu:               0.0 elap:               0.2
 (Enter /leonardo/prod/opt/applications/g16/c02/binary/g16/l301.exe)
 Standard basis: 6-31G(2df,p) (6D, 7F)
 Ernie: Thresh=  0.10000D-02 Tol=  0.10000D-05 Strict=F.
 There are    46 symmetry adapted cartesian basis functions of A   symmetry.
 There are    46 symmetry adapted cartesian basis functions of B   symmetry.
 There are    43 symmetry adapted basis functions of A   symmetry.
 There are    43 symmetry adapted basis functions of B   symmetry.
    86 basis functions,   130 primitive gaussians,    92 cartesian basis functions
     9 alpha electrons        9 beta electrons
       nuclear repulsion energy        42.1421473325 Hartrees.
 IExCor=  402 DFT=T Ex+Corr=B3LYP ExCW=0 ScaHFX=  0.200000
 ScaDFX=  0.800000  0.720000  1.000000  0.810000 ScalE2=  1.000000  1.000000
 IRadAn=      5 IRanWt=     -1 IRanGd=            0 ICorTp=0 IEmpDi=  4
 NAtoms=    8 NActive=    8 NUniq=    2 SFac= 4.00D+00 NAtFMM=   60 NAOKFM=F Big=F
 Integral buffers will be    131072 words long.
 Raffenetti 2 integral format.
 Two-electron integral symmetry is turned on.
 Leave Link  301 at Wed Apr  8 17:10:44 2026, MaxMem=  1610612736 cpu:               0.1 elap:               0.2
 (Enter /leonardo/prod/opt/applications/g16/c02/binary/g16/l302.exe)
 NPDir=0 NMtPBC=     1 NCelOv=     1 NCel=       1 NClECP=     1 NCelD=      1
         NCelK=      1 NCelE2=     1 NClLst=     1 CellRange=     0.0.
 One-electron integrals computed using PRISM.
 One-electron integral symmetry used in STVInt
 NBasis=    86 RedAO= T EigKep=  1.44D-03  NBF=    43    43
 NBsUse=    86 1.00D-06 EigRej= -1.00D+00 NBFU=    43    43
 Precomputing XC quadrature grid using
 IXCGrd= 4 IRadAn=           5 IRanWt=          -1 IRanGd=           0 AccXCQ= 0.00D+00.
 Generated NRdTot=       0 NPtTot=           0 NUsed=           0 NTot=          32
 NSgBfM=    92    92    92    92    92 MxSgAt=     8 MxSgA2=     8.
 Leave Link  302 at Wed Apr  8 17:10:46 2026, MaxMem=  1610612736 cpu:               0.8 elap:               0.4
 (Enter /leonardo/prod/opt/applications/g16/c02/binary/g16/l303.exe)
 DipDrv:  MaxL=1.
 Leave Link  303 at Wed Apr  8 17:10:47 2026, MaxMem=  1610612736 cpu:               0.3 elap:               0.3
 (Enter /leonardo/prod/opt/applications/g16/c02/binary/g16/l401.exe)
 Initial guess from the checkpoint file:  "file.chk"
 B after Tr=    -0.000000   -0.000000   -0.000000
         Rot=    1.000000   -0.000000    0.000000   -0.000000 Ang=   0.00 deg.
 Guess basis will be translated and rotated to current coordinates.
 JPrj=2 DoOrth=T DoCkMO=T.
 Initial guess orbital symmetries:
       Occupied  (A1) (A2) (A1) (A2) (E) (E) (A1) (E) (E)
       Virtual   (A1) (A2) (E) (E) (E) (E) (A2) (A1) (E) (E) (E)
                 (E) (A2) (E) (E) (E) (E) (E) (E) (A1) (A2) (A1)
                 (E) (E) (A2) (A2) (E) (E) (A1) (E) (E) (A1) (A2)
                 (E) (E) (E) (E) (A2) (A1) (A1) (E) (E) (E) (E)
                 (A2) (E) (E) (E) (E) (A1) (A1) (A2) (A1) (E) (E)
                 (A2) (E) (E) (A2) (E) (E) (E) (E) (E) (E) (E)
                 (E) (A2) (A1) (E) (E) (E) (E) (A1) (A2) (A1) (A2)
 The electronic state of the initial guess is 1-A1.
 Leave Link  401 at Wed Apr  8 17:10:48 2026, MaxMem=  1610612736 cpu:               0.2 elap:               0.4
 (Enter /leonardo/prod/opt/applications/g16/c02/binary/g16/l502.exe)
 Keep R1 ints in memory in symmetry-blocked form, NReq=18026967.
 FoFCou: FMM=F IPFlag=           0 FMFlag=           0 FMFlg1=           0
         NFxFlg=           0 DoJE=F BraDBF=F KetDBF=F FulRan=T
         wScrn=  0.000000 ICntrl=       600 IOpCl=  0 I1Cent=           0 NGrid=           0
         NMat0=    1 NMatS0=   3741 NMatT0=    0 NMatD0=    1 NMtDS0=    0 NMtDT0=    0
 Petite list used in FoFCou.
 Closed shell SCF:
 Using DIIS extrapolation, IDIIS=  1040.
 NGot=  1610612736 LenX=  1607083919 LenY=  1607075014
 Requested convergence on RMS density matrix=1.00D-08 within 128 cycles.
 Requested convergence on MAX density matrix=1.00D-06.
 Requested convergence on             energy=1.00D-06.
 No special actions if energy rises.
 An orbital has undefined symmetry, so N**3 symmetry is turned off.

 Cycle   1  Pass 1  IDiag  1:
 E= -79.8386934933540    
 DIIS: error= 9.04D-05 at cycle   1 NSaved=   1.
 NSaved= 1 IEnMin= 1 EnMin= -79.8386934933540     IErMin= 1 ErrMin= 9.04D-05
 ErrMax= 9.04D-05  0.00D+00 EMaxC= 1.00D-01 BMatC= 3.35D-07 BMatP= 3.35D-07
 IDIUse=1 WtCom= 1.00D+00 WtEn= 0.00D+00
 Coeff-Com:  0.100D+01
 Coeff:      0.100D+01
 Gap=     0.443 Goal=   None    Shift=    0.000
 RMSDP=9.04D-06 MaxDP=1.65D-04              OVMax= 2.92D-04

 Cycle   2  Pass 1  IDiag  1:
 E= -79.8386939744322     Delta-E=       -0.000000481078 Rises=F Damp=F
 DIIS: error= 1.33D-05 at cycle   2 NSaved=   2.
 NSaved= 2 IEnMin= 2 EnMin= -79.8386939744322     IErMin= 2 ErrMin= 1.33D-05
 ErrMax= 1.33D-05  0.00D+00 EMaxC= 1.00D-01 BMatC= 6.75D-09 BMatP= 3.35D-07
 IDIUse=1 WtCom= 1.00D+00 WtEn= 0.00D+00
 Coeff-Com: -0.132D-02 0.100D+01
 Coeff:     -0.132D-02 0.100D+01
 Gap=     0.443 Goal=   None    Shift=    0.000
 RMSDP=1.68D-06 MaxDP=3.08D-05 DE=-4.81D-07 OVMax= 4.28D-05

 Cycle   3  Pass 1  IDiag  1:
 E= -79.8386939751182     Delta-E=       -0.000000000686 Rises=F Damp=F
 DIIS: error= 1.07D-05 at cycle   3 NSaved=   3.
 NSaved= 3 IEnMin= 3 EnMin= -79.8386939751182     IErMin= 3 ErrMin= 1.07D-05
 ErrMax= 1.07D-05  0.00D+00 EMaxC= 1.00D-01 BMatC= 6.14D-09 BMatP= 6.75D-09
 IDIUse=1 WtCom= 1.00D+00 WtEn= 0.00D+00
 Coeff-Com: -0.208D-01 0.497D+00 0.524D+00
 Coeff:     -0.208D-01 0.497D+00 0.524D+00
 Gap=     0.443 Goal=   None    Shift=    0.000
 RMSDP=8.98D-07 MaxDP=1.59D-05 DE=-6.86D-10 OVMax= 2.14D-05

 Cycle   4  Pass 1  IDiag  1:
 E= -79.8386939813522     Delta-E=       -0.000000006234 Rises=F Damp=F
 DIIS: error= 1.55D-06 at cycle   4 NSaved=   4.
 NSaved= 4 IEnMin= 4 EnMin= -79.8386939813522     IErMin= 4 ErrMin= 1.55D-06
 ErrMax= 1.55D-06  0.00D+00 EMaxC= 1.00D-01 BMatC= 9.44D-11 BMatP= 6.14D-09
 IDIUse=1 WtCom= 1.00D+00 WtEn= 0.00D+00
 Coeff-Com: -0.250D-02 0.165D-01 0.122D+00 0.864D+00
 Coeff:     -0.250D-02 0.165D-01 0.122D+00 0.864D+00
 Gap=     0.443 Goal=   None    Shift=    0.000
 RMSDP=1.11D-07 MaxDP=1.87D-06 DE=-6.23D-09 OVMax= 2.73D-06

 Cycle   5  Pass 1  IDiag  1:
 E= -79.8386939814549     Delta-E=       -0.000000000103 Rises=F Damp=F
 DIIS: error= 5.44D-08 at cycle   5 NSaved=   5.
 NSaved= 5 IEnMin= 5 EnMin= -79.8386939814549     IErMin= 5 ErrMin= 5.44D-08
 ErrMax= 5.44D-08  0.00D+00 EMaxC= 1.00D-01 BMatC= 9.56D-14 BMatP= 9.44D-11
 IDIUse=1 WtCom= 1.00D+00 WtEn= 0.00D+00
 Coeff-Com: -0.192D-03 0.620D-03 0.111D-01 0.962D-01 0.892D+00
 Coeff:     -0.192D-03 0.620D-03 0.111D-01 0.962D-01 0.892D+00
 Gap=     0.443 Goal=   None    Shift=    0.000
 RMSDP=3.30D-09 MaxDP=3.51D-08 DE=-1.03D-10 OVMax= 1.40D-07

 SCF Done:  E(RB3LYP) =  -79.8386939815     A.U. after    5 cycles
            NFock=  5  Conv=0.33D-08     -V/T= 2.0100
 KE= 7.904966512707D+01 PE=-2.681887687724D+02 EE= 6.715826233145D+01
 Leave Link  502 at Wed Apr  8 17:10:50 2026, MaxMem=  1610612736 cpu:               3.6 elap:               1.3
 (Enter /leonardo/prod/opt/applications/g16/c02/binary/g16/l701.exe)
 ... and contract with generalized density number  0.
 Compute integral first derivatives.
 Leave Link  701 at Wed Apr  8 17:10:52 2026, MaxMem=  1610612736 cpu:               1.6 elap:               0.8
 (Enter /leonardo/prod/opt/applications/g16/c02/binary/g16/l702.exe)
 L702 exits ... SP integral derivatives will be done elsewhere.
 Leave Link  702 at Wed Apr  8 17:10:53 2026, MaxMem=  1610612736 cpu:               0.2 elap:               0.6
 (Enter /leonardo/prod/opt/applications/g16/c02/binary/g16/l703.exe)
 Integral derivatives from FoFJK, PRISM(SPDF).
 Compute integral first derivatives, UseDBF=F ICtDFT=           0.
 Calling FoFJK, ICntrl=      2127 FMM=F ISym2X=1 I1Cent= 0 IOpClX= 0 NMat=1 NMatS=1 NMatT=0.
 FoFJK:  IHMeth= 1 ICntrl=    2127 DoSepK=F KAlg= 0 I1Cent=           0 FoldK=F
 IRaf=         0 NMat=       1 IRICut=       1 DoRegI=T DoRafI=F ISym2E= 1 IDoP0=0 IntGTp=1.
 FoFCou: FMM=F IPFlag=           0 FMFlag=      100000 FMFlg1=         800
         NFxFlg=           0 DoJE=F BraDBF=F KetDBF=F FulRan=T
         wScrn=  0.000000 ICntrl=      2127 IOpCl=  0 I1Cent=           0 NGrid=           0
         NMat0=    1 NMatS0=      1 NMatT0=    0 NMatD0=    1 NMtDS0=    0 NMtDT0=    0
 Petite list used in FoFCou.
 Leave Link  703 at Wed Apr  8 17:10:56 2026, MaxMem=  1610612736 cpu:               4.2 elap:               0.7
 (Enter /leonardo/prod/opt/applications/g16/c02/binary/g16/l716.exe)
 Dipole        = 1.11022302D-16 1.11022302D-15 0.00000000D+00
 ***** Axes restored to original set *****
 -------------------------------------------------------------------
 Center     Atomic                   Forces (Hartrees/Bohr)
 Number     Number              X              Y              Z
 -------------------------------------------------------------------
      1        6          -0.000047385   -0.000000372   -0.000002415
      2        6           0.000047385    0.000000372    0.000002415
      3        1           0.000017257    0.000003439    0.000012183
      4        1           0.000018226    0.000008267   -0.000007584
      5        1           0.000018088   -0.000011285   -0.000001870
      6        1          -0.000018090    0.000011280    0.000001891
      7        1          -0.000018225   -0.000008283    0.000007568
      8        1          -0.000017257   -0.000003417   -0.000012189
 -------------------------------------------------------------------
 Cartesian Forces:  Max     0.000047385 RMS     0.000017382
 Leave Link  716 at Wed Apr  8 17:10:56 2026, MaxMem=  1610612736 cpu:               0.1 elap:               0.2
 (Enter /leonardo/prod/opt/applications/g16/c02/binary/g16/l103.exe)

 GradGradGradGradGradGradGradGradGradGradGradGradGradGradGradGradGradGrad
 Berny optimization.
 Using GEDIIS/GDIIS optimizer.
 FormGI is forming the generalized inverse of G from B-inverse, IUseBI=4.
 Internal  Forces:  Max     0.000021613 RMS     0.000013913
 Search for a local minimum.
 Step number   4 out of a maximum of   38
 All quantities printed in internal units (Hartrees-Bohrs-Radians)
 RMS Force = .13913D-04 SwitMx=.10000D-02 MixMth= 2
 Mixed Optimization -- En-DIIS/RFO-DIIS
 Swapping is turned off.
 Update second derivatives using D2CorX and points    1    2    3    4
 DE= -1.13D-06 DEPred=-1.03D-06 R= 1.09D+00
 TightC=F SS=  1.41D+00  RLast= 3.60D-03 DXNew= 5.0454D-01 1.0810D-02
 Trust test= 1.09D+00 RLast= 3.60D-03 DXMaxT set to 3.00D-01
 ITU=  1  1  1  0
     Eigenvalues ---    0.00479   0.05533   0.05533   0.05533   0.05533
     Eigenvalues ---    0.11950   0.16000   0.16000   0.16000   0.16000
     Eigenvalues ---    0.16000   0.31414   0.35083   0.35083   0.35083
     Eigenvalues ---    0.35083   0.35083   0.35939
 En-DIIS/RFO-DIIS/Sim-DIIS IScMMF=       -3 using points:     4    3    2
 RFO step:  Lambda=-3.90852821D-08.
 NNeg= 0 NGDIIS= 3 SimSw=  2.50D-01 Rises=F DC= -1.13D-06 SmlDif=  1.00D-05
 NRisDI= 0 DoIntr=F SqrtH=F CThrHd= 10.0 CDAdj=  3.0
 RMS Error=  0.1048359856D-03 NUsed= 3 OKEnD=F EnDIS=F
 InvSVX:  RCond= 6.56D-07 Info=           0 Equed=N FErr=  2.56D-15 BErr=  3.71D-17
 DidBck=F Rises=F RFO-DIIS coefs:    1.20152   -0.25030    0.04879
 Iteration  1 RMS(Cart)=  0.00013283 RMS(Int)=  0.00000005
 Iteration  2 RMS(Cart)=  0.00000001 RMS(Int)=  0.00000004
 ITry= 1 IFail=0 DXMaxC= 2.63D-04 DCOld= 1.00D+10 DXMaxT= 3.00D-01 DXLimC= 3.00D+00 Rises=F
 ClnCor:  largest displacement from symmetrization is 5.53D-12 for atom     7.
 Variable       Old X    -DE/DX   Delta X   Delta X   Delta X     New X
                                 (Linear)    (Quad)   (Total)
    R1        2.89143   0.00001  -0.00009   0.00001  -0.00008   2.89135
    R2        2.06897  -0.00000  -0.00002   0.00002  -0.00000   2.06896
    R3        2.06897  -0.00000  -0.00002   0.00002  -0.00000   2.06896
    R4        2.06897  -0.00000  -0.00002   0.00002  -0.00000   2.06896
    R5        2.06897  -0.00000  -0.00002   0.00002  -0.00000   2.06896
    R6        2.06897  -0.00000  -0.00002   0.00002  -0.00000   2.06896
    R7        2.06897  -0.00000  -0.00002   0.00002  -0.00000   2.06896
    A1        1.94369   0.00002   0.00015   0.00000   0.00016   1.94385
    A2        1.94369   0.00002   0.00015   0.00000   0.00016   1.94385
    A3        1.94369   0.00002   0.00015   0.00000   0.00016   1.94385
    A4        1.87645  -0.00002  -0.00017  -0.00000  -0.00017   1.87628
    A5        1.87645  -0.00002  -0.00017  -0.00000  -0.00017   1.87628
    A6        1.87645  -0.00002  -0.00017  -0.00000  -0.00017   1.87628
    A7        1.94369   0.00002   0.00015   0.00000   0.00016   1.94385
    A8        1.94369   0.00002   0.00015   0.00000   0.00016   1.94385
    A9        1.94369   0.00002   0.00015   0.00000   0.00016   1.94385
   A10        1.87645  -0.00002  -0.00017  -0.00000  -0.00017   1.87628
   A11        1.87645  -0.00002  -0.00017  -0.00000  -0.00017   1.87628
   A12        1.87645  -0.00002  -0.00017  -0.00000  -0.00017   1.87628
    D1        1.04721   0.00000   0.00000   0.00000   0.00000   1.04721
    D2       -1.04719   0.00000   0.00000   0.00000   0.00000  -1.04719
    D3       -3.14158   0.00000   0.00000   0.00000   0.00000  -3.14158
    D4       -1.04719   0.00000   0.00000   0.00000   0.00000  -1.04719
    D5       -3.14158   0.00000   0.00000   0.00000   0.00000  -3.14158
    D6        1.04721   0.00000   0.00000   0.00000   0.00000   1.04721
    D7       -3.14158   0.00000   0.00000   0.00000   0.00000  -3.14158
    D8        1.04721   0.00000   0.00000   0.00000   0.00000   1.04721
    D9       -1.04719   0.00000   0.00000   0.00000   0.00000  -1.04719
         Item               Value     Threshold  Converged?
 Maximum Force            0.000022     0.000450     YES
 RMS     Force            0.000014     0.000300     YES
 Maximum Displacement     0.000263     0.001800     YES
 RMS     Displacement     0.000133     0.001200     YES
 Predicted change in Energy=-1.948060D-08
 Optimization completed.
    -- Stationary point found.
                           ----------------------------
                           !   Optimized Parameters   !
                           ! (Angstroms and Degrees)  !
 --------------------------                            --------------------------
 ! Name  Definition              Value          Derivative Info.                !
 --------------------------------------------------------------------------------
 ! R1    R(1,2)                  1.5301         -DE/DX =    0.0                 !
 ! R2    R(1,3)                  1.0948         -DE/DX =    0.0                 !
 ! R3    R(1,4)                  1.0948         -DE/DX =    0.0                 !
 ! R4    R(1,5)                  1.0948         -DE/DX =    0.0                 !
 ! R5    R(2,6)                  1.0948         -DE/DX =    0.0                 !
 ! R6    R(2,7)                  1.0948         -DE/DX =    0.0                 !
 ! R7    R(2,8)                  1.0948         -DE/DX =    0.0                 !
 ! A1    A(2,1,3)              111.3654         -DE/DX =    0.0                 !
 ! A2    A(2,1,4)              111.3654         -DE/DX =    0.0                 !
 ! A3    A(2,1,5)              111.3654         -DE/DX =    0.0                 !
 ! A4    A(3,1,4)              107.5125         -DE/DX =    0.0                 !
 ! A5    A(3,1,5)              107.5125         -DE/DX =    0.0                 !
 ! A6    A(4,1,5)              107.5125         -DE/DX =    0.0                 !
 ! A7    A(1,2,6)              111.3654         -DE/DX =    0.0                 !
 ! A8    A(1,2,7)              111.3654         -DE/DX =    0.0                 !
 ! A9    A(1,2,8)              111.3654         -DE/DX =    0.0                 !
 ! A10   A(6,2,7)              107.5125         -DE/DX =    0.0                 !
 ! A11   A(6,2,8)              107.5125         -DE/DX =    0.0                 !
 ! A12   A(7,2,8)              107.5125         -DE/DX =    0.0                 !
 ! D1    D(3,1,2,6)             60.0005         -DE/DX =    0.0                 !
 ! D2    D(3,1,2,7)            -59.9995         -DE/DX =    0.0                 !
 ! D3    D(3,1,2,8)           -179.9995         -DE/DX =    0.0                 !
 ! D4    D(4,1,2,6)            -59.9995         -DE/DX =    0.0                 !
 ! D5    D(4,1,2,7)           -179.9995         -DE/DX =    0.0                 !
 ! D6    D(4,1,2,8)             60.0005         -DE/DX =    0.0                 !
 ! D7    D(5,1,2,6)           -179.9995         -DE/DX =    0.0                 !
 ! D8    D(5,1,2,7)             60.0005         -DE/DX =    0.0                 !
 ! D9    D(5,1,2,8)            -59.9995         -DE/DX =    0.0                 !
 --------------------------------------------------------------------------------
 Lowest energy point so far.  Saving SCF results.
 Largest change from initial coordinates is atom    5       1.019 Angstoms.
 GradGradGradGradGradGradGradGradGradGradGradGradGradGradGradGradGradGrad

 Leave Link  103 at Wed Apr  8 17:10:57 2026, MaxMem=  1610612736 cpu:               0.0 elap:               0.2
 (Enter /leonardo/prod/opt/applications/g16/c02/binary/g16/l202.exe)
                          Input orientation:                          
 ---------------------------------------------------------------------
 Center     Atomic      Atomic             Coordinates (Angstroms)
 Number     Number       Type             X           Y           Z
 ---------------------------------------------------------------------
      1          6           0        0.764025    0.006001    0.038932
      2          6           0       -0.764025   -0.006001   -0.038932
      3          1           0        1.214416   -0.275903   -0.918342
      4          1           0        1.130417   -0.696127    0.794887
      5          1           0        1.142259    0.999419    0.301144
      6          1           0       -1.142259   -0.999421   -0.301135
      7          1           0       -1.130417    0.696120   -0.794894
      8          1           0       -1.214416    0.275912    0.918339
 ---------------------------------------------------------------------
                    Distance matrix (angstroms):
                    1          2          3          4          5
     1  C    0.000000
     2  C    1.530079   0.000000
     3  H    1.094849   2.181843   0.000000
     4  H    1.094849   2.181843   1.766011   0.000000
     5  H    1.094849   2.181843   1.766011   1.766011   0.000000
     6  H    2.181843   1.094849   2.541327   2.541320   3.094693
     7  H    2.181843   1.094849   2.541320   3.094693   2.541327
     8  H    2.181843   1.094849   3.094693   2.541327   2.541320
                    6          7          8
     6  H    0.000000
     7  H    1.766011   0.000000
     8  H    1.766011   1.766011   0.000000
 Stoichiometry    C2H6
 Framework group  D3[C3(C.C),X(H6)]
 Deg. of freedom     4
 Full point group                 D3      NOp   6
 RotChk:  IX=3 Diff= 7.84D-16
 Largest Abelian subgroup         C2      NOp   2
 Largest concise Abelian subgroup C2      NOp   2
                         Standard orientation:                         
 ---------------------------------------------------------------------
 Center     Atomic      Atomic             Coordinates (Angstroms)
 Number     Number       Type             X           Y           Z
 ---------------------------------------------------------------------
      1          6           0        0.000000   -0.000000    0.765039
      2          6           0       -0.000000   -0.000000   -0.765039
      3          1           0       -0.509799   -0.883008    1.163908
      4          1           0       -0.509808    0.883003    1.163908
      5          1           0        1.019607    0.000005    1.163908
      6          1           0       -1.019607    0.000005   -1.163908
      7          1           0        0.509799   -0.883008   -1.163908
      8          1           0        0.509808    0.883003   -1.163908
 ---------------------------------------------------------------------
 Rotational constants (GHZ):          80.3924296          19.9111213          19.9111213
 Leave Link  202 at Wed Apr  8 17:10:57 2026, MaxMem=  1610612736 cpu:               0.0 elap:               0.2
 (Enter /leonardo/prod/opt/applications/g16/c02/binary/g16/l601.exe)
 Copying SCF densities to generalized density rwf, IOpCl= 0 IROHF=0.

 **********************************************************************

            Population analysis using the SCF Density.

 **********************************************************************

 Orbital symmetries:
       Occupied  (A1) (A2) (A1) (A2) (E) (E) (A1) (E) (E)
       Virtual   (A1) (A2) (E) (E) (E) (E) (A2) (A1) (E) (E) (E)
                 (E) (A2) (E) (E) (E) (E) (E) (E) (A1) (A2) (A1)
                 (E) (E) (A2) (A2) (E) (E) (A1) (E) (E) (A1) (A2)
                 (E) (E) (E) (E) (A2) (A1) (A1) (E) (E) (E) (E)
                 (A2) (E) (E) (E) (E) (A1) (A1) (A2) (A1) (E) (E)
                 (A2) (E) (E) (A2) (E) (E) (E) (E) (E) (E) (E)
                 (E) (A2) (A1) (E) (E) (E) (E) (A1) (A2) (A1) (A2)
 The electronic state is 1-A1.
 Alpha  occ. eigenvalues --  -10.17146 -10.17124  -0.74745  -0.61147  -0.42899
 Alpha  occ. eigenvalues --   -0.42899  -0.36247  -0.33863  -0.33863
 Alpha virt. eigenvalues --    0.10397   0.15352   0.16369   0.16369   0.18987
 Alpha virt. eigenvalues --    0.18987   0.23637   0.48555   0.51495   0.51495
 Alpha virt. eigenvalues --    0.57080   0.57080   0.57831   0.73069   0.73069
 Alpha virt. eigenvalues --    0.75674   0.75674   0.81518   0.81518   0.81633
 Alpha virt. eigenvalues --    0.90761   0.99940   1.19559   1.19559   1.35888
 Alpha virt. eigenvalues --    1.55041   1.57920   1.57920   1.60425   1.88220
 Alpha virt. eigenvalues --    1.88220   1.95436   1.97241   2.16265   2.16265
 Alpha virt. eigenvalues --    2.30408   2.30408   2.40934   2.45524   2.62152
 Alpha virt. eigenvalues --    2.75787   2.75787   2.76551   2.76551   2.86130
 Alpha virt. eigenvalues --    2.92328   2.92328   3.07678   3.07678   3.08795
 Alpha virt. eigenvalues --    3.28991   3.32841   3.52392   3.55544   3.55544
 Alpha virt. eigenvalues --    3.59086   3.70838   3.70838   3.80096   4.10269
 Alpha virt. eigenvalues --    4.10269   4.38365   4.38365   4.41493   4.41493
 Alpha virt. eigenvalues --    4.54203   4.54203   4.66064   4.73486   4.75950
 Alpha virt. eigenvalues --    4.75950   4.87449   4.87449   5.34995   5.46720
 Alpha virt. eigenvalues --   11.14095  11.81498
          Condensed to atoms (all electrons):
               1          2          3          4          5          6
     1  C    4.859134   0.422106   0.385761   0.385761   0.385761  -0.030974
     2  C    0.422106   4.859134  -0.030974  -0.030974  -0.030974   0.385761
     3  H    0.385761  -0.030974   0.598009  -0.033142  -0.033142  -0.003250
     4  H    0.385761  -0.030974  -0.033142   0.598009  -0.033142  -0.003250
     5  H    0.385761  -0.030974  -0.033142  -0.033142   0.598009   0.004786
     6  H   -0.030974   0.385761  -0.003250  -0.003250   0.004786   0.598009
     7  H   -0.030974   0.385761  -0.003250   0.004786  -0.003250  -0.033142
     8  H   -0.030974   0.385761   0.004786  -0.003250  -0.003250  -0.033142
               7          8
     1  C   -0.030974  -0.030974
     2  C    0.385761   0.385761
     3  H   -0.003250   0.004786
     4  H    0.004786  -0.003250
     5  H   -0.003250  -0.003250
     6  H   -0.033142  -0.033142
     7  H    0.598009  -0.033142
     8  H   -0.033142   0.598009
 Mulliken charges:
               1
     1  C   -0.345601
     2  C   -0.345601
     3  H    0.115200
     4  H    0.115200
     5  H    0.115200
     6  H    0.115200
     7  H    0.115200
     8  H    0.115200
 Sum of Mulliken charges =  -0.00000
 Mulliken charges with hydrogens summed into heavy atoms:
               1
     1  C   -0.000000
     2  C   -0.000000
 Electronic spatial extent (au):  <R**2>=            109.4797
 Charge=             -0.0000 electrons
 Dipole moment (field-independent basis, Debye):
    X=              0.0000    Y=             -0.0000    Z=              0.0000  Tot=              0.0000
 Quadrupole moment (field-independent basis, Debye-Ang):
   XX=            -14.6540   YY=            -14.6540   ZZ=            -15.2097
   XY=              0.0000   XZ=             -0.0000   YZ=             -0.0000
 Traceless Quadrupole moment (field-independent basis, Debye-Ang):
   XX=              0.1853   YY=              0.1853   ZZ=             -0.3705
   XY=              0.0000   XZ=             -0.0000   YZ=             -0.0000
 Octapole moment (field-independent basis, Debye-Ang**2):
  XXX=              0.0000  YYY=             -0.0000  ZZZ=              0.0000  XYY=             -0.0000
  XXY=              0.0000  XXZ=              0.0000  XZZ=              0.0000  YZZ=             -0.0000
  YYZ=              0.0000  XYZ=              0.0000
 Hexadecapole moment (field-independent basis, Debye-Ang**3):
 XXXX=            -28.5689 YYYY=            -28.5689 ZZZZ=            -92.6763 XXXY=              0.0000
 XXXZ=              1.2537 YYYX=              0.0000 YYYZ=             -0.0000 ZZZX=             -0.0000
 ZZZY=             -0.0000 XXYY=             -9.5230 XXZZ=            -19.0697 YYZZ=            -19.0697
 XXYZ=             -0.0000 YYXZ=             -1.2537 ZZXY=              0.0000
 N-N= 4.214214733245D+01 E-N=-2.681887694398D+02  KE= 7.904966512707D+01
 Symmetry A    KE= 4.076547289749D+01
 Symmetry B    KE= 3.828419222958D+01
 No NMR shielding tensors so no spin-rotation constants.
 Leave Link  601 at Wed Apr  8 17:10:58 2026, MaxMem=  1610612736 cpu:               1.0 elap:               0.4
 (Enter /leonardo/prod/opt/applications/g16/c02/binary/g16/l9999.exe)
 Unable to Open any file for archive entry.
 1\1\GINC-LRDN4971\FOpt\RB3LYP\6-31G(2df,p)\C2H6\MORZA000\08-Apr-2026\0
 \\#p opt=addredundant B3LYP/6-31G(2df,p)\\Title Card Required\\0,1\C,0
 .7640246819,0.0060010106,0.0389318719\C,-0.7640246819,-0.0060010106,-0
 .0389318719\H,1.214416406,-0.2759025948,-0.9183415186\H,1.1304172629,-
 0.6961266382,0.794886853\H,1.1422589598,0.9994185052,0.3011440084\H,-1
 .1422594202,-0.9994208082,-0.3011346191\H,-1.1304168675,0.6961196488,-
 0.7948935362\H,-1.2144163411,0.2759118871,0.9183388126\\Version=ES64L-
 G16RevC.02\State=1-A1\HF=-79.838694\RMSD=3.299e-09\RMSF=1.738e-05\Dipo
 le=0.,0.,0.\Quadrupole=-0.2743786,0.1377116,0.136667,-0.003237,-0.0209
 999,-0.0001649\PG=D03 [C3(C1.C1),X(H6)]\\@
 The archive entry for this job was punched.


 NECESSARY EVIL: ONE WE LIKE TOO MUCH TO RELINQUISH.
 Job cpu time:       0 days  0 hours  0 minutes 56.4 seconds.
 Elapsed time:       0 days  0 hours  0 minutes 34.6 seconds.
 File lengths (MBytes):  RWF=     10 Int=      0 D2E=      0 Chk=      2 Scr=      1
 Normal termination of Gaussian 16 at Wed Apr  8 17:11:00 2026.
