      -----------------------------------------------------------      
     |                   =====================                   |     
     |                           x T B                           |     
     |                   =====================                   |     
     |                         S. Grimme                         |     
     |          Mulliken Center for Theoretical Chemistry        |     
     |                    University of Bonn                     |     
      -----------------------------------------------------------      

   * xtb version 6.7.1 (6d44803) compiled by 'michele@Mac.homenet.telecomitalia.it' on 2026-04-04

   xtb is free software: you can redistribute it and/or modify it under
   the terms of the GNU Lesser General Public License as published by
   the Free Software Foundation, either version 3 of the License, or
   (at your option) any later version.
   
   xtb is distributed in the hope that it will be useful,
   but WITHOUT ANY WARRANTY; without even the implied warranty of
   MERCHANTABILITY or FITNESS FOR A PARTICULAR PURPOSE.  See the
   GNU Lesser General Public License for more details.
   
   Cite this work as:
   * C. Bannwarth, E. Caldeweyher, S. Ehlert, A. Hansen, P. Pracht,
     J. Seibert, S. Spicher, S. Grimme, WIREs Comput. Mol. Sci., 2020, 11,
     e01493. DOI: 10.1002/wcms.1493
   
   for GFN2-xTB:
   * C. Bannwarth, S. Ehlert and S. Grimme., J. Chem. Theory Comput., 2019,
     15, 1652-1671. DOI: 10.1021/acs.jctc.8b01176
   for GFN1-xTB:
   * S. Grimme, C. Bannwarth, P. Shushkov, J. Chem. Theory Comput., 2017,
     13, 1989-2009. DOI: 10.1021/acs.jctc.7b00118
   for GFN0-xTB:
   * P. Pracht, E. Caldeweyher, S. Ehlert, S. Grimme, ChemRxiv, 2019, preprint.
     DOI: 10.26434/chemrxiv.8326202.v1
   for GFN-FF:
   * S. Spicher and S. Grimme, Angew. Chem. Int. Ed., 2020, 59, 15665-15673.
     DOI: 10.1002/anie.202004239
   
   for ALPB and GBSA implicit solvation:
   * S. Ehlert, M. Stahn, S. Spicher, S. Grimme, J. Chem. Theory Comput.,
     2021, 17, 4250-4261. DOI: 10.1021/acs.jctc.1c00471
   
   for ddCOSMO and CPCM-X implicit solvation:
   * M. Stahn, S. Ehlert, S. Grimme, J. Phys. Chem. A,
     2023, XX, XXXX-XXXX. DOI: 10.1021/acs.jpca.3c04382
   
   for DFT-D4:
   * E. Caldeweyher, C. Bannwarth and S. Grimme, J. Chem. Phys., 2017,
     147, 034112. DOI: 10.1063/1.4993215
   * E. Caldeweyher, S. Ehlert, A. Hansen, H. Neugebauer, S. Spicher,
     C. Bannwarth and S. Grimme, J. Chem. Phys., 2019, 150, 154122.
     DOI: 10.1063/1.5090222
   * E. Caldeweyher, J.-M. Mewes, S. Ehlert and S. Grimme, Phys. Chem. Chem. Phys.
     2020, 22, 8499-8512. DOI: 10.1039/D0CP00502A
   
   for sTDA-xTB:
   * S. Grimme and C. Bannwarth, J. Chem. Phys., 2016, 145, 054103.
     DOI: 10.1063/1.4959605
   
   in the mass-spec context:
   * V. Asgeirsson, C. Bauer and S. Grimme, Chem. Sci., 2017, 8, 4879.
     DOI: 10.1039/c7sc00601b
   * J. Koopman and S. Grimme, ACS Omega 2019, 4, 12, 15120-15133.
     DOI: 10.1021/acsomega.9b02011
   
   for metadynamics refer to:
   * S. Grimme, J. Chem. Theory Comput., 2019, 155, 2847-2862
     DOI: 10.1021/acs.jctc.9b00143
   
   for SPH calculations refer to:
   * S. Spicher and S. Grimme, J. Chem. Theory Comput., 2021, 17, 1701-1714
     DOI: 10.1021/acs.jctc.0c01306
   
   for ONIOM refer to:
   * C. Plett, A. Katbashev, S. Ehlert, S. Grimme, M. Bursch,
     Phys. Chem. Chem. Phys., 2023, 25, 17860-17868. DOI: 10.1039/D3CP02178E
   
   for DIPRO refer to:
   * J. Kohn, N. Gildemeister, S. Grimme, D. Fazzi, A. Hansen,
     J. Chem. Phys. 159, 144106 (2023). DOI: 10.1063/5.0167484
   
   for PTB refer to:
   * S. Grimme, M. Mueller, A. Hansen, J. Chem. Phys., 2023, 158, 124111.
     DOI: 10.1063/5.0137838
   
   with help from (in alphabetical order)
   P. Atkinson, C. Bannwarth, F. Bohle, G. Brandenburg, E. Caldeweyher
   M. Checinski, S. Dohm, S. Ehlert, S. Ehrlich, I. Gerasimov, C. Hölzer
   A. Katbashev, J. Kohn, J. Koopman, C. Lavigne, S. Lehtola, F. März, M. Müller,
   F. Musil, H. Neugebauer, J. Pisarek, C. Plett, P. Pracht, F. Pultar,
   J. Seibert, P. Shushkov, S. Spicher, M. Stahn, M. Steiner, T. Strunk,
   J. Stückrath, T. Rose, and J. Unsleber
   
 * started run on 2026/04/08 at 14:20:47.121     
   ID    Z sym.   atoms
    1    6 C      1, 3, 5-8, 10-12, 14-19, 22, 23, 25-28, 30-35, 37-41,
                  43-45, 48-50, 52, 54, 56, 57, 59, 63, 65-83, 85-87, 89-94,
                  96-100, 102, 104, 105, 107, 110, 111
    2    8 O      2, 4, 9, 13, 20, 24, 29, 36, 42, 46, 51, 53, 55, 58, 60,
                  61, 64, 84, 88, 95, 101, 103, 106, 108, 109, 112
    3    7 N      21, 47, 62
    4    1 H      113-245

           -------------------------------------------------
          |                Calculation Setup                |
           -------------------------------------------------

          program call               : xtb 2571.xyz --opt --gfn2 --chrg 0 --cmaes --maxstep 0.2 --cycles 1000 --gfniter 3000 --namespace 2571
          calculation namespace      : 2571
          coordinate file            : 2571.xyz
          omp threads                :                     1

########################################################################
[WARNING] Please study the warnings concerning your input carefully
-3- prog_main_parseArguments: Unknown option '--gfniter' provided
-2- prog_main_parseArguments: Unknown option '--maxstep' provided
-1- prog_main_parseArguments: Unknown option '--cmaes' provided
########################################################################

           -------------------------------------------------
          |                 G F N 2 - x T B                 |
           -------------------------------------------------

        Reference                      10.1021/acs.jctc.8b01176
      * Hamiltonian:
        H0-scaling (s, p, d)           1.850000    2.230000    2.230000
        zeta-weighting                 0.500000
      * Dispersion:
        s8                             2.700000
        a1                             0.520000
        a2                             5.000000
        s9                             5.000000
      * Repulsion:
        kExp                           1.500000    1.000000
        rExp                           1.000000
      * Coulomb:
        alpha                          2.000000
        third order                    shell-resolved
        anisotropic                    true
        a3                             3.000000
        a5                             4.000000
        cn-shift                       1.200000
        cn-exp                         4.000000
        max-rad                        5.000000

q/qsh data taken from xtbrestart
CAMM data taken from xtbrestart

          ...................................................
          :                      SETUP                      :
          :.................................................:
          :  # basis functions                 581          :
          :  # atomic orbitals                 581          :
          :  # shells                          357          :
          :  # electrons                       636          :
          :  max. iterations                   250          :
          :  Hamiltonian                  GFN2-xTB          :
          :  restarted?                       true          :
          :  GBSA solvation                  false          :
          :  PC potential                    false          :
          :  electronic temp.          300.0000000     K    :
          :  accuracy                    1.0000000          :
          :  -> integral cutoff          0.2500000E+02      :
          :  -> integral neglect         0.1000000E-07      :
          :  -> SCF convergence          0.1000000E-05 Eh   :
          :  -> wf. convergence          0.1000000E-03 e    :
          :  Broyden damping             0.4000000          :
          :  net charge                          0          :
          :  unpaired electrons                  0          :
          ...................................................

 iter      E             dE          RMSdq      gap      omega  full diag
   1   -363.8967483 -0.363897E+03  0.208E+00    2.32       0.0  T
   2   -363.9059876 -0.923923E-02  0.123E+00    2.33       1.0  T
   3   -363.8900841  0.159035E-01  0.298E-01    2.28       1.0  T
   4   -363.9081612 -0.180771E-01  0.951E-02    2.35       1.0  T
   5   -363.9096199 -0.145872E-02  0.392E-02    2.35       1.0  T
   6   -363.9096639 -0.439469E-04  0.177E-02    2.33       1.0  T
   7   -363.9096817 -0.178409E-04  0.701E-03    2.34       1.0  T
   8   -363.9096864 -0.468644E-05  0.348E-03    2.34       1.8  T
   9   -363.9096876 -0.121778E-05  0.157E-03    2.34       4.1  T
  10   -363.9096878 -0.220885E-06  0.650E-04    2.34       9.8  T
  11   -363.9096879 -0.329151E-07  0.294E-04    2.34      21.7  T

   *** convergence criteria satisfied after 11 iterations ***

         #    Occupation            Energy/Eh            Energy/eV
      -------------------------------------------------------------
         1        2.0000           -0.7596178             -20.6703
       ...           ...                  ...                  ...
       312        2.0000           -0.3839452             -10.4477
       313        2.0000           -0.3823192             -10.4034
       314        2.0000           -0.3774624             -10.2713
       315        2.0000           -0.3772806             -10.2663
       316        2.0000           -0.3743533             -10.1867
       317        2.0000           -0.3735520             -10.1649
       318        2.0000           -0.3673189              -9.9953 (HOMO)
       319                         -0.2813372              -7.6556 (LUMO)
       320                         -0.2809981              -7.6463
       321                         -0.2728383              -7.4243
       322                         -0.2611134              -7.1053
       323                         -0.2609842              -7.1017
       ...                                ...                  ...
       581                          0.6472468              17.6125
      -------------------------------------------------------------
                  HL-Gap            0.0859818 Eh            2.3397 eV
             Fermi-level           -0.3243281 Eh           -8.8254 eV

 SCC (total)                   0 d,  0 h,  0 min,  0.801 sec
 SCC setup                      ...        0 min,  0.001 sec (  0.187%)
 Dispersion                     ...        0 min,  0.003 sec (  0.376%)
 classical contributions        ...        0 min,  0.001 sec (  0.075%)
 integral evaluation            ...        0 min,  0.039 sec (  4.864%)
 iterations                     ...        0 min,  0.525 sec ( 65.520%)
 molecular gradient             ...        0 min,  0.224 sec ( 28.023%)
 printout                       ...        0 min,  0.008 sec (  0.954%)

         :::::::::::::::::::::::::::::::::::::::::::::::::::::
         ::                     SUMMARY                     ::
         :::::::::::::::::::::::::::::::::::::::::::::::::::::
         :: total energy            -359.950424873103 Eh    ::
         :: gradient norm              0.197392741905 Eh/a0 ::
         :: HOMO-LUMO gap              2.339683043752 eV    ::
         ::.................................................::
         :: SCC energy              -363.897741063409 Eh    ::
         :: -> isotropic ES            0.675745561562 Eh    ::
         :: -> anisotropic ES          0.043364258974 Eh    ::
         :: -> anisotropic XC          0.087855058042 Eh    ::
         :: -> dispersion             -0.282781559414 Eh    ::
         :: repulsion energy           3.947316190305 Eh    ::
         :: add. restraining           0.000000000000 Eh    ::
         :: total charge              -0.000000000000 e     ::
         :::::::::::::::::::::::::::::::::::::::::::::::::::::

      ----------------------------------------------------------- 
     |                   =====================                   |
     |                        A N C O P T                        |
     |                   =====================                   |
     |               Approximate Normal Coordinate               |
     |                Rational Function Optimizer                |
      ----------------------------------------------------------- 

          ...................................................
          :                      SETUP                      :
          :.................................................:
          :   optimization level            normal          :
          :   max. optcycles                  1000          :
          :   ANC micro-cycles                  20          :
          :   degrees of freedom               729          :
          :.................................................:
          :   RF solver                   davidson          :
          :   write xtbopt.log                true          :
          :   linear?                        false          :
          :   energy convergence         0.5000000E-05 Eh   :
          :   grad. convergence          0.1000000E-02 Eh/α :
          :   maximum RF displ.          1.0000000          :
          :   Hlow (freq-cutoff)         0.1000000E-01      :
          :   Hmax (freq-cutoff)         5.0000000          :
          :   S6 in model hess.         20.0000000          :
          ...................................................

generating ANC from exact Hessian ...
Using Lindh-Hessian (1995)
 Shifting diagonal of input Hessian by    1.0034487642463315E-002
 Lowest  eigenvalues of input Hessian
    0.010000    0.010007    0.010017    0.010027    0.000000    0.000000
    0.000000    0.000000    0.000000    0.000000    0.010035    0.010045
    0.010052    0.010061    0.010088    0.010096    0.010118    0.010135
 Highest eigenvalues
    2.214960    2.239224    2.248779    2.249303    2.285950    2.287538


........................................................................
.............................. CYCLE    1 ..............................
........................................................................

 iter      E             dE          RMSdq      gap      omega  full diag
   1   -363.9096879 -0.363910E+03  0.148E-04    2.34       0.0  T
   2   -363.9096879 -0.339639E-09  0.119E-04    2.34      53.9  T
   3   -363.9096879 -0.206495E-08  0.550E-05    2.34     116.1  T
     SCC iter.                  ...        0 min,  0.147 sec
     gradient                   ...        0 min,  0.222 sec
 * total energy  :  -359.9504249 Eh     change       -0.7505264E-08 Eh
   gradient norm :     0.1973936 Eh/α   predicted     0.0000000E+00 (-100.00%)
   displ. norm   :     0.4787322 α      lambda       -0.5320473E-01
   maximum displ.:     0.0789836 α      in ANC's #299, #192, #158, ...

........................................................................
.............................. CYCLE    2 ..............................
........................................................................

 iter      E             dE          RMSdq      gap      omega  full diag
   1   -364.0810968 -0.364081E+03  0.144E-01    2.56       0.0  T
   2   -364.0815163 -0.419480E-03  0.871E-02    2.55       1.0  T
   3   -364.0813299  0.186434E-03  0.457E-02    2.54       1.0  T
   4   -364.0815605 -0.230671E-03  0.172E-02    2.54       1.0  T
   5   -364.0816212 -0.606331E-04  0.331E-03    2.54       1.9  T
   6   -364.0816220 -0.807236E-06  0.183E-03    2.54       3.5  T
   7   -364.0816220 -0.479893E-07  0.916E-04    2.54       7.0  T
   8   -364.0816221 -0.869996E-07  0.403E-04    2.54      15.8  T
     SCC iter.                  ...        0 min,  0.382 sec
     gradient                   ...        0 min,  0.223 sec
 * total energy  :  -359.9881266 Eh     change       -0.3770172E-01 Eh
   gradient norm :     0.0732022 Eh/α   predicted    -0.3275108E-01 ( -13.13%)
   displ. norm   :     0.5348025 α      lambda       -0.2123211E-01
   maximum displ.:     0.0929011 α      in ANC's #158, #147, #143, ...

........................................................................
.............................. CYCLE    3 ..............................
........................................................................

 iter      E             dE          RMSdq      gap      omega  full diag
   1   -364.1755543 -0.364176E+03  0.109E-01    2.65       0.0  T
   2   -364.1757645 -0.210162E-03  0.650E-02    2.65       1.0  T
   3   -364.1756620  0.102432E-03  0.330E-02    2.65       1.0  T
   4   -364.1757842 -0.122117E-03  0.124E-02    2.65       1.0  T
   5   -364.1758157 -0.315064E-04  0.235E-03    2.65       2.7  T
   6   -364.1758160 -0.386818E-06  0.125E-03    2.65       5.1  T
   7   -364.1758161 -0.203662E-07  0.701E-04    2.65       9.1  T
   8   -364.1758161 -0.577120E-07  0.271E-04    2.65      23.5  T
     SCC iter.                  ...        0 min,  0.381 sec
     gradient                   ...        0 min,  0.223 sec
 * total energy  :  -360.0026655 Eh     change       -0.1453892E-01 Eh
   gradient norm :     0.0307643 Eh/α   predicted    -0.1365241E-01 (  -6.10%)
   displ. norm   :     0.5455402 α      lambda       -0.8584283E-02
   maximum displ.:     0.1260267 α      in ANC's #44, #68, #158, ...

........................................................................
.............................. CYCLE    4 ..............................
........................................................................

 iter      E             dE          RMSdq      gap      omega  full diag
   1   -364.1988527 -0.364199E+03  0.757E-02    2.67       0.0  T
   2   -364.1989528 -0.100037E-03  0.449E-02    2.67       1.0  T
   3   -364.1989271  0.256205E-04  0.180E-02    2.67       1.0  T
   4   -364.1989516 -0.244378E-04  0.811E-03    2.67       1.0  T
   5   -364.1989655 -0.139457E-04  0.170E-03    2.67       3.8  T
   6   -364.1989657 -0.219749E-06  0.838E-04    2.67       7.6  T
   7   -364.1989658 -0.760662E-08  0.468E-04    2.67      13.7  T
     SCC iter.                  ...        0 min,  0.333 sec
     gradient                   ...        0 min,  0.221 sec
 * total energy  :  -360.0091161 Eh     change       -0.6450596E-02 Eh
   gradient norm :     0.0202082 Eh/α   predicted    -0.5569603E-02 ( -13.66%)
   displ. norm   :     0.6063597 α      lambda       -0.5567611E-02
   maximum displ.:     0.1670522 α      in ANC's #44, #68, #26, ...

........................................................................
.............................. CYCLE    5 ..............................
........................................................................

 iter      E             dE          RMSdq      gap      omega  full diag
   1   -364.2085318 -0.364209E+03  0.716E-02    2.68       0.0  T
   2   -364.2086052 -0.734169E-04  0.426E-02    2.68       1.0  T
   3   -364.2085804  0.248892E-04  0.161E-02    2.69       1.0  T
   4   -364.2086046 -0.242662E-04  0.704E-03    2.68       1.0  T
   5   -364.2086150 -0.103437E-04  0.159E-03    2.68       4.0  T
   6   -364.2086151 -0.169008E-06  0.812E-04    2.68       7.9  T
   7   -364.2086151 -0.109349E-07  0.375E-04    2.68      17.0  T
     SCC iter.                  ...        0 min,  0.332 sec
     gradient                   ...        0 min,  0.223 sec
 * total energy  :  -360.0134197 Eh     change       -0.4303558E-02 Eh
   gradient norm :     0.0193423 Eh/α   predicted    -0.3807334E-02 ( -11.53%)
   displ. norm   :     0.6367448 α      lambda       -0.4007079E-02
   maximum displ.:     0.1966221 α      in ANC's #44, #26, #68, ...

........................................................................
.............................. CYCLE    6 ..............................
........................................................................

 iter      E             dE          RMSdq      gap      omega  full diag
   1   -364.2146903 -0.364215E+03  0.626E-02    2.69       0.0  T
   2   -364.2147250 -0.347225E-04  0.371E-02    2.69       1.0  T
   3   -364.2147062  0.188187E-04  0.125E-02    2.69       1.0  T
   4   -364.2147261 -0.199026E-04  0.504E-03    2.69       1.3  T
   5   -364.2147311 -0.496645E-05  0.142E-03    2.69       4.5  T
   6   -364.2147312 -0.118950E-06  0.751E-04    2.69       8.5  T
   7   -364.2147312 -0.114522E-07  0.328E-04    2.69      19.5  T
     SCC iter.                  ...        0 min,  0.334 sec
     gradient                   ...        0 min,  0.222 sec
 * total energy  :  -360.0166190 Eh     change       -0.3199307E-02 Eh
   gradient norm :     0.0192806 Eh/α   predicted    -0.2815864E-02 ( -11.99%)
   displ. norm   :     0.6577147 α      lambda       -0.3250476E-02
   maximum displ.:     0.2114257 α      in ANC's #44, #26, #24, ...

........................................................................
.............................. CYCLE    7 ..............................
........................................................................

 iter      E             dE          RMSdq      gap      omega  full diag
   1   -364.2213130 -0.364221E+03  0.595E-02    2.69       0.0  T
   2   -364.2213383 -0.252594E-04  0.352E-02    2.69       1.0  T
   3   -364.2213258  0.124553E-04  0.101E-02    2.69       1.0  T
   4   -364.2213386 -0.128008E-04  0.433E-03    2.69       1.5  T
   5   -364.2213422 -0.360973E-05  0.123E-03    2.69       5.2  T
   6   -364.2213423 -0.877362E-07  0.663E-04    2.69       9.6  T
   7   -364.2213423 -0.829721E-08  0.283E-04    2.69      22.6  T
     SCC iter.                  ...        0 min,  0.335 sec
     gradient                   ...        0 min,  0.734 sec
 * total energy  :  -360.0192583 Eh     change       -0.2639292E-02 Eh
   gradient norm :     0.0159307 Eh/α   predicted    -0.2328325E-02 ( -11.78%)
   displ. norm   :     0.6730260 α      lambda       -0.2674219E-02
   maximum displ.:     0.2137996 α      in ANC's #44, #26, #24, ...

........................................................................
.............................. CYCLE    8 ..............................
........................................................................

 iter      E             dE          RMSdq      gap      omega  full diag
   1   -364.2292780 -0.364229E+03  0.544E-02    2.71       0.0  T
   2   -364.2292925 -0.144877E-04  0.322E-02    2.70       1.0  T
   3   -364.2292813  0.111962E-04  0.903E-03    2.70       1.0  T
   4   -364.2292944 -0.130771E-04  0.314E-03    2.70       2.0  T
   5   -364.2292960 -0.160637E-05  0.113E-03    2.70       5.6  T
   6   -364.2292960 -0.494981E-07  0.552E-04    2.70      11.6  T
   7   -364.2292960 -0.680052E-08  0.274E-04    2.70      23.3  T
     SCC iter.                  ...        0 min,  0.749 sec
     gradient                   ...        0 min,  0.225 sec
 * total energy  :  -360.0214314 Eh     change       -0.2173144E-02 Eh
   gradient norm :     0.0120193 Eh/α   predicted    -0.1942772E-02 ( -10.60%)
   displ. norm   :     0.6810554 α      lambda       -0.2161348E-02
   maximum displ.:     0.2239775 α      in ANC's #26, #44, #32, ...

........................................................................
.............................. CYCLE    9 ..............................
........................................................................

 iter      E             dE          RMSdq      gap      omega  full diag
   1   -364.2337323 -0.364234E+03  0.562E-02    2.69       0.0  T
   2   -364.2337484 -0.160932E-04  0.333E-02    2.69       1.0  T
   3   -364.2337328  0.155901E-04  0.101E-02    2.69       1.0  T
   4   -364.2337497 -0.168991E-04  0.352E-03    2.69       1.8  T
   5   -364.2337520 -0.229401E-05  0.109E-03    2.69       5.9  T
   6   -364.2337520 -0.265343E-07  0.622E-04    2.69      10.3  T
   7   -364.2337520 -0.165130E-07  0.282E-04    2.69      22.6  T
     SCC iter.                  ...        0 min,  0.334 sec
     gradient                   ...        0 min,  0.226 sec
 * total energy  :  -360.0231768 Eh     change       -0.1745418E-02 Eh
   gradient norm :     0.0121100 Eh/α   predicted    -0.1581931E-02 (  -9.37%)
   displ. norm   :     0.6743108 α      lambda       -0.1765867E-02
   maximum displ.:     0.2330949 α      in ANC's #26, #32, #24, ...

........................................................................
.............................. CYCLE   10 ..............................
........................................................................

 iter      E             dE          RMSdq      gap      omega  full diag
   1   -364.2391866 -0.364239E+03  0.506E-02    2.70       0.0  T
   2   -364.2392009 -0.142914E-04  0.301E-02    2.70       1.0  T
   3   -364.2391792  0.217445E-04  0.116E-02    2.70       1.0  T
   4   -364.2392037 -0.245287E-04  0.327E-03    2.70       2.0  T
   5   -364.2392056 -0.193188E-05  0.109E-03    2.70       5.9  T
   6   -364.2392056 -0.252846E-07  0.583E-04    2.70      11.0  T
   7   -364.2392057 -0.229685E-07  0.281E-04    2.70      22.8  T
     SCC iter.                  ...        0 min,  0.333 sec
     gradient                   ...        0 min,  0.227 sec
 * total energy  :  -360.0245597 Eh     change       -0.1382834E-02 Eh
   gradient norm :     0.0110281 Eh/α   predicted    -0.1284404E-02 (  -7.12%)
   displ. norm   :     0.6794753 α      lambda       -0.1476952E-02
   maximum displ.:     0.2338037 α      in ANC's #26, #32, #24, ...

........................................................................
.............................. CYCLE   11 ..............................
........................................................................

 iter      E             dE          RMSdq      gap      omega  full diag
   1   -364.2392050 -0.364239E+03  0.569E-02    2.69       0.0  T
   2   -364.2392415 -0.365642E-04  0.338E-02    2.69       1.0  T
   3   -364.2392276  0.138939E-04  0.109E-02    2.69       1.0  T
   4   -364.2392389 -0.112987E-04  0.545E-03    2.69       1.2  T
   5   -364.2392454 -0.648801E-05  0.109E-03    2.69       5.9  T
   6   -364.2392455 -0.547234E-07  0.635E-04    2.69      10.1  T
   7   -364.2392455 -0.590086E-08  0.303E-04    2.69      21.1  T
     SCC iter.                  ...        0 min,  0.333 sec
     gradient                   ...        0 min,  0.225 sec
 * total energy  :  -360.0256428 Eh     change       -0.1083084E-02 Eh
   gradient norm :     0.0146120 Eh/α   predicted    -0.1079432E-02 (  -0.34%)
   displ. norm   :     0.6271092 α      lambda       -0.1292503E-02
   maximum displ.:     0.2194597 α      in ANC's #26, #32, #24, ...

........................................................................
.............................. CYCLE   12 ..............................
........................................................................

 iter      E             dE          RMSdq      gap      omega  full diag
   1   -364.2427546 -0.364243E+03  0.496E-02    2.67       0.0  T
   2   -364.2427698 -0.152260E-04  0.294E-02    2.67       1.0  T
   3   -364.2427525  0.173480E-04  0.105E-02    2.67       1.0  T
   4   -364.2427718 -0.192559E-04  0.323E-03    2.67       2.0  T
   5   -364.2427738 -0.200904E-05  0.101E-03    2.67       6.4  T
   6   -364.2427738 -0.492346E-07  0.523E-04    2.67      12.2  T
   7   -364.2427738 -0.659918E-08  0.273E-04    2.67      23.4  T
     SCC iter.                  ...        0 min,  0.334 sec
     gradient                   ...        0 min,  0.226 sec
 * total energy  :  -360.0265948 Eh     change       -0.9520340E-03 Eh
   gradient norm :     0.0119123 Eh/α   predicted    -0.9004066E-03 (  -5.42%)
   displ. norm   :     0.6203392 α      lambda       -0.1071492E-02
   maximum displ.:     0.2214728 α      in ANC's #32, #26, #24, ...

........................................................................
.............................. CYCLE   13 ..............................
........................................................................

 iter      E             dE          RMSdq      gap      omega  full diag
   1   -364.2426757 -0.364243E+03  0.497E-02    2.68       0.0  T
   2   -364.2426866 -0.108700E-04  0.294E-02    2.68       1.0  T
   3   -364.2426754  0.111287E-04  0.841E-03    2.68       1.0  T
   4   -364.2426876 -0.121517E-04  0.298E-03    2.68       2.1  T
   5   -364.2426893 -0.168170E-05  0.990E-04    2.68       6.5  T
   6   -364.2426893 -0.426655E-07  0.515E-04    2.68      12.4  T
   7   -364.2426893 -0.503076E-08  0.202E-04    2.68      31.7  T
     SCC iter.                  ...        0 min,  0.334 sec
     gradient                   ...        0 min,  0.225 sec
 * total energy  :  -360.0274387 Eh     change       -0.8438936E-03 Eh
   gradient norm :     0.0114276 Eh/α   predicted    -0.7419172E-03 ( -12.08%)
   displ. norm   :     0.6325636 α      lambda       -0.1169365E-02
   maximum displ.:     0.2227834 α      in ANC's #32, #26, #24, ...

........................................................................
.............................. CYCLE   14 ..............................
........................................................................

 iter      E             dE          RMSdq      gap      omega  full diag
   1   -364.2492128 -0.364249E+03  0.562E-02    2.67       0.0  T
   2   -364.2492297 -0.169139E-04  0.331E-02    2.67       1.0  T
   3   -364.2492126  0.171288E-04  0.107E-02    2.67       1.0  T
   4   -364.2492317 -0.191450E-04  0.361E-03    2.66       1.8  T
   5   -364.2492342 -0.244177E-05  0.122E-03    2.66       5.3  T
   6   -364.2492343 -0.762238E-07  0.628E-04    2.66      10.2  T
   7   -364.2492343 -0.502922E-08  0.252E-04    2.66      25.3  T
     SCC iter.                  ...        0 min,  0.333 sec
     gradient                   ...        0 min,  0.226 sec
 * total energy  :  -360.0281605 Eh     change       -0.7218537E-03 Eh
   gradient norm :     0.0180318 Eh/α   predicted    -0.8186367E-03 (  13.41%)
   displ. norm   :     0.5636602 α      lambda       -0.1169067E-02
   maximum displ.:     0.1882447 α      in ANC's #32, #26, #24, ...

........................................................................
.............................. CYCLE   15 ..............................
........................................................................

 iter      E             dE          RMSdq      gap      omega  full diag
   1   -364.2444488 -0.364244E+03  0.497E-02    2.63       0.0  T
   2   -364.2444627 -0.138870E-04  0.293E-02    2.63       1.0  T
   3   -364.2444523  0.104584E-04  0.889E-03    2.64       1.0  T
   4   -364.2444644 -0.121684E-04  0.322E-03    2.63       2.0  T
   5   -364.2444662 -0.182203E-05  0.119E-03    2.63       5.3  T
   6   -364.2444663 -0.753493E-07  0.585E-04    2.63      10.9  T
   7   -364.2444663 -0.592814E-08  0.241E-04    2.63      26.5  T
     SCC iter.                  ...        0 min,  0.334 sec
     gradient                   ...        0 min,  0.227 sec
 * total energy  :  -360.0288945 Eh     change       -0.7339398E-03 Eh
   gradient norm :     0.0121973 Eh/α   predicted    -0.7702636E-03 (   4.95%)
   displ. norm   :     0.5086645 α      lambda       -0.7019903E-03
   maximum displ.:     0.1714906 α      in ANC's #32, #26, #52, ...

........................................................................
.............................. CYCLE   16 ..............................
........................................................................

 iter      E             dE          RMSdq      gap      omega  full diag
   1   -364.2420720 -0.364242E+03  0.391E-02    2.63       0.0  T
   2   -364.2420765 -0.452485E-05  0.232E-02    2.63       1.0  T
   3   -364.2420624  0.140685E-04  0.878E-03    2.63       1.0  T
   4   -364.2420783 -0.158527E-04  0.181E-03    2.63       3.5  T
   5   -364.2420788 -0.498891E-06  0.735E-04    2.63       8.7  T
   6   -364.2420788 -0.152866E-07  0.384E-04    2.63      16.6  T
     SCC iter.                  ...        0 min,  0.289 sec
     gradient                   ...        0 min,  0.226 sec
 * total energy  :  -360.0294577 Eh     change       -0.5632767E-03 Eh
   gradient norm :     0.0111577 Eh/α   predicted    -0.4418168E-03 ( -21.56%)
   displ. norm   :     0.6119734 α      lambda       -0.1141046E-02
   maximum displ.:     0.1761510 α      in ANC's #52, #32, #26, ...

........................................................................
.............................. CYCLE   17 ..............................
........................................................................

 iter      E             dE          RMSdq      gap      omega  full diag
   1   -364.2480630 -0.364248E+03  0.516E-02    2.64       0.0  T
   2   -364.2480757 -0.126385E-04  0.306E-02    2.63       1.0  T
   3   -364.2480458  0.298457E-04  0.135E-02    2.63       1.0  T
   4   -364.2480802 -0.344137E-04  0.313E-03    2.62       2.0  T
   5   -364.2480818 -0.154781E-05  0.121E-03    2.63       5.3  T
   6   -364.2480818 -0.370341E-07  0.602E-04    2.63      10.6  T
   7   -364.2480818 -0.130145E-07  0.284E-04    2.63      22.5  T
     SCC iter.                  ...        0 min,  0.334 sec
     gradient                   ...        0 min,  0.228 sec
 * total energy  :  -360.0301126 Eh     change       -0.6548824E-03 Eh
   gradient norm :     0.0178778 Eh/α   predicted    -0.7841954E-03 (  19.75%)
   displ. norm   :     0.5293104 α      lambda       -0.9419249E-03
   maximum displ.:     0.1489578 α      in ANC's #32, #52, #26, ...

........................................................................
.............................. CYCLE   18 ..............................
........................................................................

 iter      E             dE          RMSdq      gap      omega  full diag
   1   -364.2485948 -0.364249E+03  0.445E-02    2.61       0.0  T
   2   -364.2486057 -0.108498E-04  0.262E-02    2.61       1.0  T
   3   -364.2485876  0.181288E-04  0.105E-02    2.61       1.0  T
   4   -364.2486075 -0.199719E-04  0.290E-03    2.61       2.2  T
   5   -364.2486091 -0.154956E-05  0.863E-04    2.61       7.4  T
   6   -364.2486091 -0.155669E-07  0.483E-04    2.61      13.2  T
   7   -364.2486091 -0.918232E-08  0.218E-04    2.61      29.3  T
     SCC iter.                  ...        0 min,  0.333 sec
     gradient                   ...        0 min,  0.226 sec
 * total energy  :  -360.0307713 Eh     change       -0.6586302E-03 Eh
   gradient norm :     0.0116388 Eh/α   predicted    -0.6029125E-03 (  -8.46%)
   displ. norm   :     0.5959457 α      lambda       -0.7735682E-03
   maximum displ.:     0.1695432 α      in ANC's #32, #26, #52, ...

........................................................................
.............................. CYCLE   19 ..............................
........................................................................

 iter      E             dE          RMSdq      gap      omega  full diag
   1   -364.2436185 -0.364244E+03  0.439E-02    2.59       0.0  T
   2   -364.2436256 -0.704870E-05  0.260E-02    2.59       1.0  T
   3   -364.2436074  0.181588E-04  0.103E-02    2.59       1.0  T
   4   -364.2436280 -0.205178E-04  0.238E-03    2.59       2.7  T
   5   -364.2436289 -0.953766E-06  0.889E-04    2.59       7.2  T
   6   -364.2436289 -0.131019E-07  0.438E-04    2.59      14.6  T
     SCC iter.                  ...        0 min,  0.286 sec
     gradient                   ...        0 min,  0.226 sec
 * total energy  :  -360.0314055 Eh     change       -0.6342452E-03 Eh
   gradient norm :     0.0116825 Eh/α   predicted    -0.5241569E-03 ( -17.36%)
   displ. norm   :     0.6286659 α      lambda       -0.1262731E-02
   maximum displ.:     0.1700460 α      in ANC's #52, #27, #46, ...

........................................................................
.............................. CYCLE   20 ..............................
........................................................................

 iter      E             dE          RMSdq      gap      omega  full diag
   1   -364.2569857 -0.364257E+03  0.511E-02    2.58       0.0  T
   2   -364.2570128 -0.271042E-04  0.301E-02    2.58       1.0  T
   3   -364.2570027  0.100869E-04  0.110E-02    2.58       1.0  T
   4   -364.2570141 -0.113372E-04  0.429E-03    2.58       1.5  T
   5   -364.2570177 -0.362773E-05  0.119E-03    2.58       5.4  T
   6   -364.2570178 -0.440000E-07  0.635E-04    2.58      10.1  T
   7   -364.2570178 -0.202332E-07  0.289E-04    2.58      22.1  T
     SCC iter.                  ...        0 min,  0.334 sec
     gradient                   ...        0 min,  0.227 sec
 * total energy  :  -360.0321380 Eh     change       -0.7324659E-03 Eh
   gradient norm :     0.0183123 Eh/α   predicted    -0.8809025E-03 (  20.27%)
   displ. norm   :     0.6450331 α      lambda       -0.1133258E-02
   maximum displ.:     0.1726245 α      in ANC's #52, #32, #27, ...
 * RMSD in coord.:     0.5962023 α      energy gain  -0.8171310E-01 Eh

generating ANC from exact Hessian ...
Using Lindh-Hessian (1995)
 Shifting diagonal of input Hessian by    1.0046418805738476E-002
 Lowest  eigenvalues of input Hessian
    0.010000    0.010013    0.010026    0.010035    0.010044    0.000000
    0.000000    0.000000    0.000000    0.000000    0.000000    0.010051
    0.010060    0.010073    0.010099    0.010124    0.010129    0.010149
 Highest eigenvalues
    2.335984    2.338052    2.353356    2.368510    2.372360    2.387040


........................................................................
.............................. CYCLE   21 ..............................
........................................................................

 iter      E             dE          RMSdq      gap      omega  full diag
   1   -364.2491319 -0.364249E+03  0.497E-02    2.58       0.0  T
   2   -364.2491498 -0.178139E-04  0.295E-02    2.57       1.0  T
   3   -364.2491359  0.138886E-04  0.104E-02    2.58       1.0  T
   4   -364.2491520 -0.161786E-04  0.347E-03    2.57       1.8  T
   5   -364.2491542 -0.213201E-05  0.124E-03    2.57       5.1  T
   6   -364.2491543 -0.826032E-07  0.650E-04    2.57       9.8  T
   7   -364.2491543 -0.533203E-08  0.274E-04    2.57      23.3  T
     SCC iter.                  ...        0 min,  0.333 sec
     gradient                   ...        0 min,  0.226 sec
 * total energy  :  -360.0328864 Eh     change       -0.7484503E-03 Eh
   gradient norm :     0.0178320 Eh/α   predicted     0.0000000E+00 (-100.00%)
   displ. norm   :     0.1494713 α      lambda       -0.7053973E-03
   maximum displ.:     0.0519458 α      in ANC's #47, #19, #51, ...

........................................................................
.............................. CYCLE   22 ..............................
........................................................................

 iter      E             dE          RMSdq      gap      omega  full diag
   1   -364.2535898 -0.364254E+03  0.182E-02    2.58       0.0  T
   2   -364.2535951 -0.528040E-05  0.108E-02    2.58       1.0  T
   3   -364.2535944  0.644659E-06  0.390E-03    2.57       1.6  T
   4   -364.2535955 -0.107162E-05  0.122E-03    2.57       5.2  T
   5   -364.2535958 -0.264880E-06  0.456E-04    2.57      14.0  T
   6   -364.2535958 -0.237584E-07  0.208E-04    2.58      30.7  T
     SCC iter.                  ...        0 min,  0.293 sec
     gradient                   ...        0 min,  0.230 sec
 * total energy  :  -360.0334244 Eh     change       -0.5380129E-03 Eh
   gradient norm :     0.0067641 Eh/α   predicted    -0.3605880E-03 ( -32.98%)
   displ. norm   :     0.3413805 α      lambda       -0.8092881E-03
   maximum displ.:     0.1152861 α      in ANC's #47, #19, #45, ...

........................................................................
.............................. CYCLE   23 ..............................
........................................................................

 iter      E             dE          RMSdq      gap      omega  full diag
   1   -364.2565822 -0.364257E+03  0.323E-02    2.58       0.0  T
   2   -364.2565912 -0.901058E-05  0.193E-02    2.58       1.0  T
   3   -364.2565890  0.224398E-05  0.543E-03    2.58       1.2  T
   4   -364.2565920 -0.300584E-05  0.191E-03    2.58       3.3  T
   5   -364.2565926 -0.641527E-06  0.722E-04    2.58       8.8  T
   6   -364.2565927 -0.408161E-07  0.339E-04    2.58      18.9  T
     SCC iter.                  ...        0 min,  0.288 sec
     gradient                   ...        0 min,  0.227 sec
 * total energy  :  -360.0340331 Eh     change       -0.6087142E-03 Eh
   gradient norm :     0.0084944 Eh/α   predicted    -0.4518357E-03 ( -25.77%)
   displ. norm   :     0.5279988 α      lambda       -0.8460291E-03
   maximum displ.:     0.1655955 α      in ANC's #47, #19, #45, ...

........................................................................
.............................. CYCLE   24 ..............................
........................................................................

 iter      E             dE          RMSdq      gap      omega  full diag
   1   -364.2551411 -0.364255E+03  0.438E-02    2.58       0.0  T
   2   -364.2551512 -0.101749E-04  0.262E-02    2.59       1.0  T
   3   -364.2551482  0.298104E-05  0.588E-03    2.58       1.1  T
   4   -364.2551526 -0.433719E-05  0.222E-03    2.58       2.9  T
   5   -364.2551533 -0.741688E-06  0.981E-04    2.58       6.5  T
   6   -364.2551534 -0.521997E-07  0.432E-04    2.59      14.8  T
     SCC iter.                  ...        0 min,  0.287 sec
     gradient                   ...        0 min,  0.230 sec
 * total energy  :  -360.0347744 Eh     change       -0.7412824E-03 Eh
   gradient norm :     0.0137055 Eh/α   predicted    -0.5409438E-03 ( -27.03%)
   displ. norm   :     0.7686229 α      lambda       -0.1199039E-02
   maximum displ.:     0.2273518 α      in ANC's #45, #19, #47, ...

........................................................................
.............................. CYCLE   25 ..............................
........................................................................

 iter      E             dE          RMSdq      gap      omega  full diag
   1   -364.2490838 -0.364249E+03  0.598E-02    2.59       0.0  T
   2   -364.2491019 -0.180352E-04  0.359E-02    2.60       1.0  T
   3   -364.2490956  0.625651E-05  0.838E-03    2.60       1.0  T
   4   -364.2491052 -0.954940E-05  0.294E-03    2.60       2.2  T
   5   -364.2491063 -0.117091E-05  0.144E-03    2.60       4.4  T
   6   -364.2491065 -0.109231E-06  0.568E-04    2.60      11.3  T
   7   -364.2491065 -0.134168E-07  0.211E-04    2.60      30.3  T
     SCC iter.                  ...        0 min,  0.333 sec
     gradient                   ...        0 min,  0.227 sec
 * total energy  :  -360.0357691 Eh     change       -0.9946322E-03 Eh
   gradient norm :     0.0166697 Eh/α   predicted    -0.9537122E-03 (  -4.11%)
   displ. norm   :     0.6304673 α      lambda       -0.1088999E-02
   maximum displ.:     0.1926264 α      in ANC's #19, #45, #28, ...

........................................................................
.............................. CYCLE   26 ..............................
........................................................................

 iter      E             dE          RMSdq      gap      omega  full diag
   1   -364.2460495 -0.364246E+03  0.446E-02    2.60       0.0  T
   2   -364.2460621 -0.125876E-04  0.267E-02    2.61       1.0  T
   3   -364.2460561  0.598124E-05  0.770E-03    2.61       1.0  T
   4   -364.2460643 -0.815030E-05  0.258E-03    2.61       2.5  T
   5   -364.2460653 -0.103205E-05  0.114E-03    2.61       5.6  T
   6   -364.2460654 -0.670481E-07  0.489E-04    2.61      13.1  T
   7   -364.2460654 -0.712402E-08  0.185E-04    2.61      34.6  T
     SCC iter.                  ...        0 min,  0.334 sec
     gradient                   ...        0 min,  0.227 sec
 * total energy  :  -360.0366400 Eh     change       -0.8709788E-03 Eh
   gradient norm :     0.0183525 Eh/α   predicted    -0.7609356E-03 ( -12.63%)
   displ. norm   :     0.4780366 α      lambda       -0.1320335E-02
   maximum displ.:     0.1545897 α      in ANC's #19, #28, #40, ...

........................................................................
.............................. CYCLE   27 ..............................
........................................................................

 iter      E             dE          RMSdq      gap      omega  full diag
   1   -364.2533827 -0.364253E+03  0.351E-02    2.62       0.0  T
   2   -364.2534004 -0.177324E-04  0.208E-02    2.62       1.0  T
   3   -364.2533971  0.328436E-05  0.760E-03    2.63       1.0  T
   4   -364.2534012 -0.410010E-05  0.308E-03    2.63       2.1  T
   5   -364.2534031 -0.188314E-05  0.943E-04    2.63       6.8  T
   6   -364.2534032 -0.537677E-07  0.450E-04    2.63      14.2  T
   7   -364.2534032 -0.651767E-08  0.205E-04    2.63      31.2  T
     SCC iter.                  ...        0 min,  0.333 sec
     gradient                   ...        0 min,  0.227 sec
 * total energy  :  -360.0375136 Eh     change       -0.8735923E-03 Eh
   gradient norm :     0.0170032 Eh/α   predicted    -0.8110324E-03 (  -7.16%)
   displ. norm   :     0.6387098 α      lambda       -0.1021685E-02
   maximum displ.:     0.2104602 α      in ANC's #19, #45, #28, ...

........................................................................
.............................. CYCLE   28 ..............................
........................................................................

 iter      E             dE          RMSdq      gap      omega  full diag
   1   -364.2527181 -0.364253E+03  0.442E-02    2.64       0.0  T
   2   -364.2527271 -0.905218E-05  0.264E-02    2.64       1.0  T
   3   -364.2527247  0.248561E-05  0.563E-03    2.64       1.1  T
   4   -364.2527287 -0.404531E-05  0.203E-03    2.64       3.2  T
   5   -364.2527293 -0.556964E-06  0.103E-03    2.64       6.2  T
   6   -364.2527293 -0.552286E-07  0.400E-04    2.64      16.0  T
   7   -364.2527293 -0.946267E-08  0.150E-04    2.64      42.7  T
     SCC iter.                  ...        0 min,  0.332 sec
     gradient                   ...        0 min,  0.227 sec
 * total energy  :  -360.0383384 Eh     change       -0.8247294E-03 Eh
   gradient norm :     0.0179693 Eh/α   predicted    -0.7192414E-03 ( -12.79%)
   displ. norm   :     0.5491692 α      lambda       -0.1321832E-02
   maximum displ.:     0.2010787 α      in ANC's #19, #29, #21, ...

........................................................................
.............................. CYCLE   29 ..............................
........................................................................

 iter      E             dE          RMSdq      gap      omega  full diag
   1   -364.2606699 -0.364261E+03  0.386E-02    2.65       0.0  T
   2   -364.2606810 -0.111518E-04  0.229E-02    2.65       1.0  T
   3   -364.2606767  0.431546E-05  0.683E-03    2.65       1.0  T
   4   -364.2606824 -0.567826E-05  0.238E-03    2.65       2.7  T
   5   -364.2606834 -0.962592E-06  0.955E-04    2.65       6.7  T
   6   -364.2606834 -0.545515E-07  0.443E-04    2.65      14.4  T
     SCC iter.                  ...        0 min,  0.309 sec
     gradient                   ...        0 min,  0.227 sec
 * total energy  :  -360.0393226 Eh     change       -0.9842572E-03 Eh
   gradient norm :     0.0126040 Eh/α   predicted    -0.8602413E-03 ( -12.60%)
   displ. norm   :     0.7115547 α      lambda       -0.1170385E-02
   maximum displ.:     0.2684495 α      in ANC's #19, #28, #29, ...

........................................................................
.............................. CYCLE   30 ..............................
........................................................................

 iter      E             dE          RMSdq      gap      omega  full diag
   1   -364.2569009 -0.364257E+03  0.493E-02    2.66       0.0  T
   2   -364.2569133 -0.123735E-04  0.293E-02    2.66       1.0  T
   3   -364.2569112  0.211288E-05  0.573E-03    2.66       1.1  T
   4   -364.2569153 -0.408421E-05  0.206E-03    2.66       3.1  T
   5   -364.2569157 -0.419465E-06  0.121E-03    2.66       5.3  T
   6   -364.2569158 -0.123553E-06  0.562E-04    2.66      11.4  T
   7   -364.2569158 -0.153499E-07  0.145E-04    2.66      44.1  T
     SCC iter.                  ...        0 min,  0.333 sec
     gradient                   ...        0 min,  0.228 sec
 * total energy  :  -360.0402804 Eh     change       -0.9577726E-03 Eh
   gradient norm :     0.0163850 Eh/α   predicted    -0.8814880E-03 (  -7.96%)
   displ. norm   :     0.6387071 α      lambda       -0.1322597E-02
   maximum displ.:     0.2586270 α      in ANC's #19, #29, #18, ...

........................................................................
.............................. CYCLE   31 ..............................
........................................................................

 iter      E             dE          RMSdq      gap      omega  full diag
   1   -364.2594035 -0.364259E+03  0.434E-02    2.66       0.0  T
   2   -364.2594120 -0.853188E-05  0.257E-02    2.66       1.0  T
   3   -364.2594097  0.228808E-05  0.518E-03    2.66       1.2  T
   4   -364.2594132 -0.340499E-05  0.205E-03    2.66       3.1  T
   5   -364.2594138 -0.637707E-06  0.925E-04    2.66       6.9  T
   6   -364.2594138 -0.441758E-07  0.428E-04    2.66      14.9  T
     SCC iter.                  ...        0 min,  0.287 sec
     gradient                   ...        0 min,  0.226 sec
 * total energy  :  -360.0413235 Eh     change       -0.1043083E-02 Eh
   gradient norm :     0.0140176 Eh/α   predicted    -0.9310785E-03 ( -10.74%)
   displ. norm   :     0.7844610 α      lambda       -0.1301690E-02
   maximum displ.:     0.3186644 α      in ANC's #19, #29, #18, ...

........................................................................
.............................. CYCLE   32 ..............................
........................................................................

 iter      E             dE          RMSdq      gap      omega  full diag
   1   -364.2549838 -0.364255E+03  0.510E-02    2.66       0.0  T
   2   -364.2549977 -0.139027E-04  0.303E-02    2.66       1.0  T
   3   -364.2549939  0.383612E-05  0.687E-03    2.66       1.0  T
   4   -364.2549997 -0.582651E-05  0.253E-03    2.66       2.5  T
   5   -364.2550006 -0.925428E-06  0.122E-03    2.66       5.2  T
   6   -364.2550007 -0.955730E-07  0.503E-04    2.66      12.7  T
   7   -364.2550008 -0.822735E-08  0.164E-04    2.66      39.0  T
     SCC iter.                  ...        0 min,  0.333 sec
     gradient                   ...        0 min,  0.226 sec
 * total energy  :  -360.0424461 Eh     change       -0.1122666E-02 Eh
   gradient norm :     0.0140991 Eh/α   predicted    -0.1051363E-02 (  -6.35%)
   displ. norm   :     0.6889629 α      lambda       -0.1665967E-02
   maximum displ.:     0.2907674 α      in ANC's #19, #29, #18, ...

........................................................................
.............................. CYCLE   33 ..............................
........................................................................

 iter      E             dE          RMSdq      gap      omega  full diag
   1   -364.2615133 -0.364262E+03  0.506E-02    2.65       0.0  T
   2   -364.2615349 -0.215470E-04  0.298E-02    2.65       1.0  T
   3   -364.2615279  0.695730E-05  0.843E-03    2.65       1.0  T
   4   -364.2615361 -0.818151E-05  0.350E-03    2.65       1.8  T
   5   -364.2615383 -0.223981E-05  0.119E-03    2.65       5.4  T
   6   -364.2615384 -0.932491E-07  0.596E-04    2.65      10.7  T
   7   -364.2615384 -0.558776E-08  0.264E-04    2.65      24.2  T
     SCC iter.                  ...        0 min,  0.333 sec
     gradient                   ...        0 min,  0.228 sec
 * total energy  :  -360.0436264 Eh     change       -0.1180282E-02 Eh
   gradient norm :     0.0163573 Eh/α   predicted    -0.1228376E-02 (   4.07%)
   displ. norm   :     0.8136641 α      lambda       -0.1427635E-02
   maximum displ.:     0.3445988 α      in ANC's #19, #29, #18, ...

........................................................................
.............................. CYCLE   34 ..............................
........................................................................

 iter      E             dE          RMSdq      gap      omega  full diag
   1   -364.2552671 -0.364255E+03  0.563E-02    2.65       0.0  T
   2   -364.2552966 -0.294716E-04  0.335E-02    2.66       1.0  T
   3   -364.2552876  0.905398E-05  0.112E-02    2.66       1.0  T
   4   -364.2553025 -0.149194E-04  0.289E-03    2.66       2.2  T
   5   -364.2553034 -0.952835E-06  0.160E-03    2.66       4.0  T
   6   -364.2553037 -0.234068E-06  0.613E-04    2.66      10.4  T
   7   -364.2553037 -0.110358E-07  0.246E-04    2.66      25.9  T
     SCC iter.                  ...        0 min,  0.333 sec
     gradient                   ...        0 min,  0.227 sec
 * total energy  :  -360.0447238 Eh     change       -0.1097331E-02 Eh
   gradient norm :     0.0206736 Eh/α   predicted    -0.1186404E-02 (   8.12%)
   displ. norm   :     0.5894235 α      lambda       -0.1375959E-02
   maximum displ.:     0.2490540 α      in ANC's #19, #29, #18, ...

........................................................................
.............................. CYCLE   35 ..............................
........................................................................

 iter      E             dE          RMSdq      gap      omega  full diag
   1   -364.2612110 -0.364261E+03  0.438E-02    2.66       0.0  T
   2   -364.2612320 -0.209297E-04  0.255E-02    2.66       1.0  T
   3   -364.2612242  0.780876E-05  0.929E-03    2.66       1.0  T
   4   -364.2612330 -0.880701E-05  0.373E-03    2.66       1.7  T
   5   -364.2612357 -0.271848E-05  0.108E-03    2.66       5.9  T
   6   -364.2612358 -0.813174E-07  0.528E-04    2.66      12.1  T
   7   -364.2612358 -0.637573E-08  0.224E-04    2.66      28.6  T
     SCC iter.                  ...        0 min,  0.333 sec
     gradient                   ...        0 min,  0.228 sec
 * total energy  :  -360.0457593 Eh     change       -0.1035562E-02 Eh
   gradient norm :     0.0149825 Eh/α   predicted    -0.9269996E-03 ( -10.48%)
   displ. norm   :     0.6498532 α      lambda       -0.1224778E-02
   maximum displ.:     0.2750522 α      in ANC's #19, #29, #18, ...

........................................................................
.............................. CYCLE   36 ..............................
........................................................................

 iter      E             dE          RMSdq      gap      omega  full diag
   1   -364.2617929 -0.364262E+03  0.461E-02    2.66       0.0  T
   2   -364.2618125 -0.195906E-04  0.268E-02    2.66       1.0  T
   3   -364.2618054  0.709898E-05  0.887E-03    2.67       1.0  T
   4   -364.2618140 -0.869058E-05  0.358E-03    2.66       1.8  T
   5   -364.2618164 -0.234058E-05  0.123E-03    2.66       5.2  T
   6   -364.2618165 -0.891863E-07  0.532E-04    2.66      12.0  T
   7   -364.2618165 -0.890111E-08  0.215E-04    2.66      29.8  T
     SCC iter.                  ...        0 min,  0.332 sec
     gradient                   ...        0 min,  0.227 sec
 * total energy  :  -360.0466868 Eh     change       -0.9275253E-03 Eh
   gradient norm :     0.0132194 Eh/α   predicted    -0.8710068E-03 (  -6.09%)
   displ. norm   :     0.6159181 α      lambda       -0.9819948E-03
   maximum displ.:     0.2334486 α      in ANC's #19, #18, #29, ...

........................................................................
.............................. CYCLE   37 ..............................
........................................................................

 iter      E             dE          RMSdq      gap      omega  full diag
   1   -364.2634361 -0.364263E+03  0.436E-02    2.67       0.0  T
   2   -364.2634554 -0.192635E-04  0.252E-02    2.67       1.0  T
   3   -364.2634502  0.513151E-05  0.797E-03    2.67       1.0  T
   4   -364.2634562 -0.601243E-05  0.330E-03    2.67       1.9  T
   5   -364.2634584 -0.211917E-05  0.104E-03    2.67       6.1  T
   6   -364.2634584 -0.711624E-07  0.484E-04    2.67      13.2  T
   7   -364.2634584 -0.590433E-08  0.200E-04    2.67      32.0  T
     SCC iter.                  ...        0 min,  0.334 sec
     gradient                   ...        0 min,  0.228 sec
 * total energy  :  -360.0474564 Eh     change       -0.7695077E-03 Eh
   gradient norm :     0.0105481 Eh/α   predicted    -0.6772650E-03 ( -11.99%)
   displ. norm   :     0.6197330 α      lambda       -0.1078048E-02
   maximum displ.:     0.1883655 α      in ANC's #19, #18, #28, ...

........................................................................
.............................. CYCLE   38 ..............................
........................................................................

 iter      E             dE          RMSdq      gap      omega  full diag
   1   -364.2700207 -0.364270E+03  0.469E-02    2.67       0.0  T
   2   -364.2700503 -0.295802E-04  0.270E-02    2.67       1.0  T
   3   -364.2700445  0.575284E-05  0.953E-03    2.67       1.0  T
   4   -364.2700515 -0.701815E-05  0.394E-03    2.67       1.6  T
   5   -364.2700546 -0.300766E-05  0.123E-03    2.67       5.2  T
   6   -364.2700546 -0.933142E-07  0.625E-04    2.67      10.2  T
   7   -364.2700547 -0.746854E-08  0.299E-04    2.67      21.4  T
     SCC iter.                  ...        0 min,  0.333 sec
     gradient                   ...        0 min,  0.228 sec
 * total energy  :  -360.0481015 Eh     change       -0.6451646E-03 Eh
   gradient norm :     0.0133718 Eh/α   predicted    -0.7460490E-03 (  15.64%)
   displ. norm   :     0.7050121 α      lambda       -0.1123137E-02
   maximum displ.:     0.2375887 α      in ANC's #19, #18, #28, ...

........................................................................
.............................. CYCLE   39 ..............................
........................................................................

 iter      E             dE          RMSdq      gap      omega  full diag
   1   -364.2581185 -0.364258E+03  0.508E-02    2.68       0.0  T
   2   -364.2581599 -0.414696E-04  0.299E-02    2.68       1.0  T
   3   -364.2581556  0.436960E-05  0.114E-02    2.68       1.0  T
   4   -364.2581653 -0.976694E-05  0.320E-03    2.68       2.0  T
   5   -364.2581667 -0.133650E-05  0.159E-03    2.68       4.0  T
   6   -364.2581669 -0.285434E-06  0.663E-04    2.68       9.6  T
   7   -364.2581670 -0.148171E-07  0.235E-04    2.68      27.2  T
     SCC iter.                  ...        0 min,  0.333 sec
     gradient                   ...        0 min,  0.229 sec
 * total energy  :  -360.0487032 Eh     change       -0.6017071E-03 Eh
   gradient norm :     0.0170898 Eh/α   predicted    -0.8406921E-03 (  39.72%)
   displ. norm   :     0.3290741 α      lambda       -0.8397753E-03
   maximum displ.:     0.0796128 α      in ANC's #6, #8, #45, ...

........................................................................
.............................. CYCLE   40 ..............................
........................................................................

 iter      E             dE          RMSdq      gap      omega  full diag
   1   -364.2659079 -0.364266E+03  0.285E-02    2.69       0.0  T
   2   -364.2659150 -0.704672E-05  0.171E-02    2.69       1.0  T
   3   -364.2659116  0.337730E-05  0.571E-03    2.69       1.1  T
   4   -364.2659161 -0.449998E-05  0.195E-03    2.69       3.3  T
   5   -364.2659167 -0.602485E-06  0.753E-04    2.69       8.5  T
   6   -364.2659167 -0.233309E-07  0.328E-04    2.69      19.5  T
     SCC iter.                  ...        0 min,  0.285 sec
     gradient                   ...        0 min,  0.229 sec
 * total energy  :  -360.0490002 Eh     change       -0.2970113E-03 Eh
   gradient norm :     0.0175228 Eh/α   predicted    -0.4653585E-03 (  56.68%)
   displ. norm   :     0.4106529 α      lambda       -0.8859589E-03
   maximum displ.:     0.1264154 α      in ANC's #18, #19, #29, ...

........................................................................
.............................. CYCLE   41 ..............................
........................................................................

 iter      E             dE          RMSdq      gap      omega  full diag
   1   -364.2677248 -0.364268E+03  0.299E-02    2.70       0.0  T
   2   -364.2677407 -0.158803E-04  0.177E-02    2.70       1.0  T
   3   -364.2677401  0.589656E-06  0.555E-03    2.70       1.2  T
   4   -364.2677418 -0.166992E-05  0.201E-03    2.70       3.2  T
   5   -364.2677423 -0.575732E-06  0.934E-04    2.70       6.8  T
   6   -364.2677424 -0.102068E-06  0.418E-04    2.70      15.3  T
     SCC iter.                  ...        0 min,  0.286 sec
     gradient                   ...        0 min,  0.227 sec
 * total energy  :  -360.0494679 Eh     change       -0.4677055E-03 Eh
   gradient norm :     0.0116020 Eh/α   predicted    -0.5176820E-03 (  10.69%)
   displ. norm   :     0.4174031 α      lambda       -0.6895164E-03
   maximum displ.:     0.1212948 α      in ANC's #18, #19, #39, ...

........................................................................
.............................. CYCLE   42 ..............................
........................................................................

 iter      E             dE          RMSdq      gap      omega  full diag
   1   -364.2674066 -0.364267E+03  0.337E-02    2.70       0.0  T
   2   -364.2674239 -0.172889E-04  0.200E-02    2.70       1.0  T
   3   -364.2674226  0.124529E-05  0.720E-03    2.70       1.0  T
   4   -364.2674266 -0.394426E-05  0.190E-03    2.70       3.4  T
   5   -364.2674268 -0.284258E-06  0.120E-03    2.70       5.3  T
   6   -364.2674270 -0.167102E-06  0.535E-04    2.70      11.9  T
   7   -364.2674270 -0.111278E-07  0.173E-04    2.70      37.0  T
     SCC iter.                  ...        0 min,  0.333 sec
     gradient                   ...        0 min,  0.228 sec
 * total energy  :  -360.0497176 Eh     change       -0.2496693E-03 Eh
   gradient norm :     0.0158735 Eh/α   predicted    -0.4048259E-03 (  62.14%)
   displ. norm   :     0.3022464 α      lambda       -0.5554956E-03
   maximum displ.:     0.0819596 α      in ANC's #6, #18, #1, ...
 * RMSD in coord.:     0.7116144 α      energy gain  -0.1757964E-01 Eh

generating ANC from exact Hessian ...
Using Lindh-Hessian (1995)
 Shifting diagonal of input Hessian by    1.0047710788474740E-002
 Lowest  eigenvalues of input Hessian
    0.010000    0.010013    0.010027    0.010037    0.010046    0.000000
    0.000000    0.000000    0.000000    0.000000    0.000000    0.010053
    0.010063    0.010085    0.010108    0.010126    0.010151    0.010169
 Highest eigenvalues
    2.338314    2.338954    2.349304    2.366398    2.392467    2.404521


........................................................................
.............................. CYCLE   43 ..............................
........................................................................

 iter      E             dE          RMSdq      gap      omega  full diag
   1   -364.2672008 -0.364267E+03  0.241E-02    2.70       0.0  T
   2   -364.2672073 -0.640358E-05  0.145E-02    2.70       1.0  T
   3   -364.2672059  0.135772E-05  0.454E-03    2.70       1.4  T
   4   -364.2672080 -0.213859E-05  0.144E-03    2.70       4.5  T
   5   -364.2672083 -0.305376E-06  0.651E-04    2.70       9.8  T
   6   -364.2672084 -0.393165E-07  0.268E-04    2.70      23.8  T
     SCC iter.                  ...        0 min,  0.286 sec
     gradient                   ...        0 min,  0.227 sec
 * total energy  :  -360.0500576 Eh     change       -0.3399552E-03 Eh
   gradient norm :     0.0124737 Eh/α   predicted     0.0000000E+00 (-100.00%)
   displ. norm   :     0.1086001 α      lambda       -0.4128536E-03
   maximum displ.:     0.0295039 α      in ANC's #57, #59, #68, ...

........................................................................
.............................. CYCLE   44 ..............................
........................................................................

 iter      E             dE          RMSdq      gap      omega  full diag
   1   -364.2695668 -0.364270E+03  0.150E-02    2.70       0.0  T
   2   -364.2695688 -0.203312E-05  0.895E-03    2.70       1.0  T
   3   -364.2695684  0.462780E-06  0.257E-03    2.70       2.5  T
   4   -364.2695692 -0.806305E-06  0.521E-04    2.70      12.3  T
   5   -364.2695692 -0.152859E-07  0.357E-04    2.70      17.9  T
     SCC iter.                  ...        0 min,  0.240 sec
     gradient                   ...        0 min,  0.229 sec
 * total energy  :  -360.0503708 Eh     change       -0.3132835E-03 Eh
   gradient norm :     0.0039393 Eh/α   predicted    -0.2088631E-03 ( -33.33%)
   displ. norm   :     0.2410460 α      lambda       -0.4486987E-03
   maximum displ.:     0.0659657 α      in ANC's #57, #68, #65, ...

........................................................................
.............................. CYCLE   45 ..............................
........................................................................

 iter      E             dE          RMSdq      gap      omega  full diag
   1   -364.2707680 -0.364271E+03  0.268E-02    2.70       0.0  T
   2   -364.2707709 -0.293051E-05  0.159E-02    2.70       1.0  T
   3   -364.2707703  0.595993E-06  0.291E-03    2.70       2.2  T
   4   -364.2707715 -0.118829E-05  0.107E-03    2.70       6.0  T
   5   -364.2707716 -0.123177E-06  0.602E-04    2.70      10.6  T
   6   -364.2707717 -0.218406E-07  0.254E-04    2.70      25.1  T
     SCC iter.                  ...        0 min,  0.286 sec
     gradient                   ...        0 min,  0.229 sec
 * total energy  :  -360.0507061 Eh     change       -0.3352992E-03 Eh
   gradient norm :     0.0056608 Eh/α   predicted    -0.2373896E-03 ( -29.20%)
   displ. norm   :     0.3739003 α      lambda       -0.4563698E-03
   maximum displ.:     0.0980372 α      in ANC's #57, #68, #65, ...

........................................................................
.............................. CYCLE   46 ..............................
........................................................................

 iter      E             dE          RMSdq      gap      omega  full diag
   1   -364.2688840 -0.364269E+03  0.411E-02    2.70       0.0  T
   2   -364.2688931 -0.906988E-05  0.242E-02    2.70       1.0  T
   3   -364.2688926  0.541737E-06  0.410E-03    2.70       1.6  T
   4   -364.2688943 -0.171574E-05  0.196E-03    2.70       3.3  T
   5   -364.2688948 -0.533657E-06  0.978E-04    2.70       6.5  T
   6   -364.2688949 -0.540367E-07  0.458E-04    2.70      13.9  T
     SCC iter.                  ...        0 min,  0.289 sec
     gradient                   ...        0 min,  0.226 sec
 * total energy  :  -360.0510679 Eh     change       -0.3617832E-03 Eh
   gradient norm :     0.0077839 Eh/α   predicted    -0.2602435E-03 ( -28.07%)
   displ. norm   :     0.4923199 α      lambda       -0.4934312E-03
   maximum displ.:     0.1176025 α      in ANC's #57, #22, #68, ...

........................................................................
.............................. CYCLE   47 ..............................
........................................................................

 iter      E             dE          RMSdq      gap      omega  full diag
   1   -364.2644407 -0.364264E+03  0.523E-02    2.70       0.0  T
   2   -364.2644576 -0.168571E-04  0.309E-02    2.71       1.0  T
   3   -364.2644556  0.195563E-05  0.633E-03    2.71       1.0  T
   4   -364.2644605 -0.489314E-05  0.239E-03    2.71       2.7  T
   5   -364.2644610 -0.560151E-06  0.143E-03    2.71       4.5  T
   6   -364.2644612 -0.168332E-06  0.683E-04    2.71       9.4  T
   7   -364.2644612 -0.196307E-07  0.165E-04    2.71      38.8  T
     SCC iter.                  ...        0 min,  0.333 sec
     gradient                   ...        0 min,  0.229 sec
 * total energy  :  -360.0513677 Eh     change       -0.2997436E-03 Eh
   gradient norm :     0.0176462 Eh/α   predicted    -0.3065164E-03 (   2.26%)
   displ. norm   :     0.2019561 α      lambda       -0.3530872E-03
   maximum displ.:     0.0616405 α      in ANC's #22, #4, #6, ...

........................................................................
.............................. CYCLE   48 ..............................
........................................................................

 iter      E             dE          RMSdq      gap      omega  full diag
   1   -364.2665413 -0.364267E+03  0.166E-02    2.71       0.0  T
   2   -364.2665445 -0.315186E-05  0.980E-03    2.71       1.0  T
   3   -364.2665441  0.317637E-06  0.265E-03    2.71       2.4  T
   4   -364.2665447 -0.509471E-06  0.107E-03    2.71       6.0  T
   5   -364.2665449 -0.202109E-06  0.419E-04    2.71      15.2  T
   6   -364.2665449 -0.113906E-07  0.215E-04    2.71      29.8  T
     SCC iter.                  ...        0 min,  0.287 sec
     gradient                   ...        0 min,  0.228 sec
 * total energy  :  -360.0516540 Eh     change       -0.2863618E-03 Eh
   gradient norm :     0.0111653 Eh/α   predicted    -0.1839145E-03 ( -35.78%)
   displ. norm   :     0.4212702 α      lambda       -0.5419537E-03
   maximum displ.:     0.1447966 α      in ANC's #22, #4, #6, ...

........................................................................
.............................. CYCLE   49 ..............................
........................................................................

 iter      E             dE          RMSdq      gap      omega  full diag
   1   -364.2689169 -0.364269E+03  0.348E-02    2.71       0.0  T
   2   -364.2689222 -0.529219E-05  0.205E-02    2.71       1.0  T
   3   -364.2689198  0.245334E-05  0.474E-03    2.71       1.3  T
   4   -364.2689231 -0.332994E-05  0.183E-03    2.71       3.5  T
   5   -364.2689236 -0.515473E-06  0.797E-04    2.71       8.0  T
   6   -364.2689236 -0.285267E-07  0.364E-04    2.71      17.5  T
     SCC iter.                  ...        0 min,  0.286 sec
     gradient                   ...        0 min,  0.228 sec
 * total energy  :  -360.0520294 Eh     change       -0.3754010E-03 Eh
   gradient norm :     0.0071498 Eh/α   predicted    -0.3191288E-03 ( -14.99%)
   displ. norm   :     0.4934090 α      lambda       -0.3897959E-03
   maximum displ.:     0.1760688 α      in ANC's #22, #4, #6, ...

........................................................................
.............................. CYCLE   50 ..............................
........................................................................

 iter      E             dE          RMSdq      gap      omega  full diag
   1   -364.2674228 -0.364267E+03  0.395E-02    2.71       0.0  T
   2   -364.2674331 -0.102849E-04  0.232E-02    2.71       1.0  T
   3   -364.2674309  0.222866E-05  0.555E-03    2.72       1.2  T
   4   -364.2674342 -0.332234E-05  0.236E-03    2.72       2.7  T
   5   -364.2674351 -0.910938E-06  0.993E-04    2.72       6.4  T
   6   -364.2674351 -0.537095E-07  0.486E-04    2.72      13.1  T
     SCC iter.                  ...        0 min,  0.286 sec
     gradient                   ...        0 min,  0.228 sec
 * total energy  :  -360.0522962 Eh     change       -0.2667684E-03 Eh
   gradient norm :     0.0092030 Eh/α   predicted    -0.2423512E-03 (  -9.15%)
   displ. norm   :     0.3911587 α      lambda       -0.3654345E-03
   maximum displ.:     0.1664839 α      in ANC's #22, #4, #6, ...

........................................................................
.............................. CYCLE   51 ..............................
........................................................................

 iter      E             dE          RMSdq      gap      omega  full diag
   1   -364.2718414 -0.364272E+03  0.284E-02    2.72       0.0  T
   2   -364.2718469 -0.550271E-05  0.167E-02    2.72       1.0  T
   3   -364.2718444  0.249475E-05  0.506E-03    2.72       1.3  T
   4   -364.2718478 -0.335970E-05  0.156E-03    2.72       4.1  T
   5   -364.2718482 -0.394144E-06  0.648E-04    2.72       9.9  T
   6   -364.2718482 -0.242961E-07  0.305E-04    2.72      20.9  T
     SCC iter.                  ...        0 min,  0.287 sec
     gradient                   ...        0 min,  0.228 sec
 * total energy  :  -360.0525307 Eh     change       -0.2345171E-03 Eh
   gradient norm :     0.0093557 Eh/α   predicted    -0.2106794E-03 ( -10.16%)
   displ. norm   :     0.6276352 α      lambda       -0.4540615E-03
   maximum displ.:     0.2519167 α      in ANC's #22, #4, #6, ...

........................................................................
.............................. CYCLE   52 ..............................
........................................................................

 iter      E             dE          RMSdq      gap      omega  full diag
   1   -364.2652477 -0.364265E+03  0.547E-02    2.72       0.0  T
   2   -364.2652827 -0.350128E-04  0.322E-02    2.72       1.0  T
   3   -364.2652800  0.267272E-05  0.840E-03    2.73       1.0  T
   4   -364.2652850 -0.498772E-05  0.325E-03    2.73       2.0  T
   5   -364.2652867 -0.168174E-05  0.149E-03    2.73       4.3  T
   6   -364.2652869 -0.220706E-06  0.735E-04    2.73       8.7  T
   7   -364.2652869 -0.170833E-07  0.244E-04    2.73      26.2  T
     SCC iter.                  ...        0 min,  0.334 sec
     gradient                   ...        0 min,  0.228 sec
 * total energy  :  -360.0526476 Eh     change       -0.1168613E-03 Eh
   gradient norm :     0.0199782 Eh/α   predicted    -0.3164649E-03 ( 170.80%)
   displ. norm   :     0.1089707 α      lambda       -0.4127957E-03
   maximum displ.:     0.0370360 α      in ANC's #22, #44, #38, ...

........................................................................
.............................. CYCLE   53 ..............................
........................................................................

 iter      E             dE          RMSdq      gap      omega  full diag
   1   -364.2709270 -0.364271E+03  0.141E-02    2.73       0.0  T
   2   -364.2709364 -0.947552E-05  0.843E-03    2.73       1.0  T
   3   -364.2709370 -0.527259E-06  0.430E-03    2.73       1.5  T
   4   -364.2709375 -0.546977E-06  0.749E-04    2.73       8.5  T
   5   -364.2709375 -0.334897E-07  0.495E-04    2.73      12.9  T
     SCC iter.                  ...        0 min,  0.239 sec
     gradient                   ...        0 min,  0.229 sec
 * total energy  :  -360.0528993 Eh     change       -0.2517498E-03 Eh
   gradient norm :     0.0063086 Eh/α   predicted    -0.2088540E-03 ( -17.04%)
   displ. norm   :     0.3442901 α      lambda       -0.2200440E-03
   maximum displ.:     0.1615180 α      in ANC's #22, #4, #6, ...

........................................................................
.............................. CYCLE   54 ..............................
........................................................................

 iter      E             dE          RMSdq      gap      omega  full diag
   1   -364.2723351 -0.364272E+03  0.218E-02    2.73       0.0  T
   2   -364.2723389 -0.381200E-05  0.129E-02    2.73       1.0  T
   3   -364.2723382  0.667900E-06  0.296E-03    2.73       2.2  T
   4   -364.2723389 -0.632273E-06  0.151E-03    2.73       4.2  T
   5   -364.2723393 -0.440335E-06  0.415E-04    2.73      15.4  T
   6   -364.2723393 -0.716238E-08  0.238E-04    2.73      26.8  T
     SCC iter.                  ...        0 min,  0.287 sec
     gradient                   ...        0 min,  0.229 sec
 * total energy  :  -360.0530683 Eh     change       -0.1690162E-03 Eh
   gradient norm :     0.0039377 Eh/α   predicted    -0.1231139E-03 ( -27.16%)
   displ. norm   :     0.5818855 α      lambda       -0.2975825E-03
   maximum displ.:     0.2731911 α      in ANC's #22, #6, #4, ...

........................................................................
.............................. CYCLE   55 ..............................
........................................................................

 iter      E             dE          RMSdq      gap      omega  full diag
   1   -364.2720624 -0.364272E+03  0.370E-02    2.73       0.0  T
   2   -364.2720661 -0.370239E-05  0.219E-02    2.73       1.0  T
   3   -364.2720638  0.227918E-05  0.432E-03    2.73       1.5  T
   4   -364.2720669 -0.310896E-05  0.167E-03    2.73       3.8  T
   5   -364.2720673 -0.385402E-06  0.748E-04    2.73       8.5  T
   6   -364.2720673 -0.140974E-07  0.327E-04    2.73      19.5  T
     SCC iter.                  ...        0 min,  0.287 sec
     gradient                   ...        0 min,  0.229 sec
 * total energy  :  -360.0532986 Eh     change       -0.2302479E-03 Eh
   gradient norm :     0.0054518 Eh/α   predicted    -0.1991706E-03 ( -13.50%)
   displ. norm   :     0.5764314 α      lambda       -0.2930403E-03
   maximum displ.:     0.2671084 α      in ANC's #22, #4, #6, ...

........................................................................
.............................. CYCLE   56 ..............................
........................................................................

 iter      E             dE          RMSdq      gap      omega  full diag
   1   -364.2708576 -0.364271E+03  0.365E-02    2.73       0.0  T
   2   -364.2708625 -0.495451E-05  0.215E-02    2.74       1.0  T
   3   -364.2708594  0.315080E-05  0.498E-03    2.74       1.3  T
   4   -364.2708632 -0.378795E-05  0.183E-03    2.74       3.5  T
   5   -364.2708637 -0.548704E-06  0.686E-04    2.74       9.3  T
   6   -364.2708637 -0.139938E-07  0.342E-04    2.74      18.7  T
     SCC iter.                  ...        0 min,  0.296 sec
     gradient                   ...        0 min,  0.229 sec
 * total energy  :  -360.0535040 Eh     change       -0.2054383E-03 Eh
   gradient norm :     0.0073521 Eh/α   predicted    -0.1952159E-03 (  -4.98%)
   displ. norm   :     0.5005558 α      lambda       -0.2166179E-03
   maximum displ.:     0.2274781 α      in ANC's #22, #4, #6, ...

........................................................................
.............................. CYCLE   57 ..............................
........................................................................

 iter      E             dE          RMSdq      gap      omega  full diag
   1   -364.2696483 -0.364270E+03  0.305E-02    2.74       0.0  T
   2   -364.2696517 -0.348767E-05  0.180E-02    2.74       1.0  T
   3   -364.2696486  0.318401E-05  0.476E-03    2.74       1.3  T
   4   -364.2696523 -0.372524E-05  0.161E-03    2.74       4.0  T
   5   -364.2696527 -0.426520E-06  0.606E-04    2.74      10.5  T
   6   -364.2696527 -0.115778E-07  0.316E-04    2.74      20.2  T
     SCC iter.                  ...        0 min,  0.286 sec
     gradient                   ...        0 min,  0.228 sec
 * total energy  :  -360.0536699 Eh     change       -0.1658408E-03 Eh
   gradient norm :     0.0062477 Eh/α   predicted    -0.1354469E-03 ( -18.33%)
   displ. norm   :     0.4257845 α      lambda       -0.2480447E-03
   maximum displ.:     0.1704614 α      in ANC's #22, #6, #4, ...

........................................................................
.............................. CYCLE   58 ..............................
........................................................................

 iter      E             dE          RMSdq      gap      omega  full diag
   1   -364.2744917 -0.364274E+03  0.278E-02    2.74       0.0  T
   2   -364.2744966 -0.483013E-05  0.165E-02    2.74       1.0  T
   3   -364.2744928  0.372680E-05  0.554E-03    2.74       1.2  T
   4   -364.2744972 -0.435302E-05  0.171E-03    2.74       3.7  T
   5   -364.2744977 -0.535866E-06  0.508E-04    2.74      12.6  T
   6   -364.2744977 -0.121975E-07  0.273E-04    2.74      23.4  T
     SCC iter.                  ...        0 min,  0.286 sec
     gradient                   ...        0 min,  0.230 sec
 * total energy  :  -360.0538064 Eh     change       -0.1365568E-03 Eh
   gradient norm :     0.0077553 Eh/α   predicted    -0.1465075E-03 (   7.29%)
   displ. norm   :     0.5162035 α      lambda       -0.2147458E-03
   maximum displ.:     0.2197147 α      in ANC's #22, #6, #4, ...

........................................................................
.............................. CYCLE   59 ..............................
........................................................................

 iter      E             dE          RMSdq      gap      omega  full diag
   1   -364.2690840 -0.364269E+03  0.334E-02    2.74       0.0  T
   2   -364.2690885 -0.443244E-05  0.197E-02    2.74       1.0  T
   3   -364.2690844  0.409109E-05  0.547E-03    2.74       1.2  T
   4   -364.2690893 -0.493470E-05  0.174E-03    2.75       3.7  T
   5   -364.2690898 -0.460028E-06  0.718E-04    2.74       8.9  T
   6   -364.2690898 -0.195463E-07  0.358E-04    2.74      17.8  T
     SCC iter.                  ...        0 min,  0.294 sec
     gradient                   ...        0 min,  0.229 sec
 * total energy  :  -360.0539140 Eh     change       -0.1076045E-03 Eh
   gradient norm :     0.0056536 Eh/α   predicted    -0.1359882E-03 (  26.38%)
   displ. norm   :     0.1976159 α      lambda       -0.1187388E-03
   maximum displ.:     0.0732926 α      in ANC's #22, #6, #4, ...

........................................................................
.............................. CYCLE   60 ..............................
........................................................................

 iter      E             dE          RMSdq      gap      omega  full diag
   1   -364.2709063 -0.364271E+03  0.131E-02    2.75       0.0  T
   2   -364.2709079 -0.159354E-05  0.768E-03    2.75       1.0  T
   3   -364.2709073  0.616527E-06  0.267E-03    2.75       2.4  T
   4   -364.2709080 -0.763710E-06  0.957E-04    2.75       6.7  T
   5   -364.2709082 -0.165455E-06  0.313E-04    2.75      20.4  T
     SCC iter.                  ...        0 min,  0.239 sec
     gradient                   ...        0 min,  0.230 sec
 * total energy  :  -360.0539831 Eh     change       -0.6907047E-04 Eh
   gradient norm :     0.0057180 Eh/α   predicted    -0.6168974E-04 ( -10.69%)
   displ. norm   :     0.2065815 α      lambda       -0.1266808E-03
   maximum displ.:     0.0760016 α      in ANC's #6, #4, #1, ...

........................................................................
.............................. CYCLE   61 ..............................
........................................................................

 iter      E             dE          RMSdq      gap      omega  full diag
   1   -364.2732838 -0.364273E+03  0.138E-02    2.75       0.0  T
   2   -364.2732854 -0.165605E-05  0.828E-03    2.75       1.0  T
   3   -364.2732846  0.855297E-06  0.294E-03    2.75       2.2  T
   4   -364.2732857 -0.111248E-05  0.858E-04    2.75       7.4  T
   5   -364.2732858 -0.126032E-06  0.305E-04    2.75      21.0  T
   6   -364.2732858 -0.655706E-08  0.127E-04    2.75      50.1  T
     SCC iter.                  ...        0 min,  0.287 sec
     gradient                   ...        0 min,  0.233 sec
 * total energy  :  -360.0540666 Eh     change       -0.8350287E-04 Eh
   gradient norm :     0.0058258 Eh/α   predicted    -0.6604453E-04 ( -20.91%)
   displ. norm   :     0.3381773 α      lambda       -0.1022021E-03
   maximum displ.:     0.1290023 α      in ANC's #6, #4, #22, ...

........................................................................
.............................. CYCLE   62 ..............................
........................................................................

 iter      E             dE          RMSdq      gap      omega  full diag
   1   -364.2727800 -0.364273E+03  0.200E-02    2.75       0.0  T
   2   -364.2727837 -0.375679E-05  0.118E-02    2.75       1.0  T
   3   -364.2727825  0.124726E-05  0.360E-03    2.75       1.8  T
   4   -364.2727836 -0.114809E-05  0.162E-03    2.75       4.0  T
   5   -364.2727841 -0.533720E-06  0.379E-04    2.75      16.8  T
   6   -364.2727842 -0.860803E-08  0.216E-04    2.75      29.6  T
     SCC iter.                  ...        0 min,  0.286 sec
     gradient                   ...        0 min,  0.229 sec
 * total energy  :  -360.0541449 Eh     change       -0.7831164E-04 Eh
   gradient norm :     0.0040310 Eh/α   predicted    -0.5694524E-04 ( -27.28%)
   displ. norm   :     0.3360870 α      lambda       -0.1120058E-03
   maximum displ.:     0.1351340 α      in ANC's #6, #4, #1, ...

........................................................................
.............................. CYCLE   63 ..............................
........................................................................

 iter      E             dE          RMSdq      gap      omega  full diag
   1   -364.2723283 -0.364272E+03  0.191E-02    2.75       0.0  T
   2   -364.2723297 -0.142408E-05  0.113E-02    2.75       1.0  T
   3   -364.2723278  0.188665E-05  0.342E-03    2.75       1.9  T
   4   -364.2723299 -0.211317E-05  0.103E-03    2.75       6.2  T
   5   -364.2723301 -0.178913E-06  0.359E-04    2.75      17.8  T
   6   -364.2723301 -0.341669E-08  0.206E-04    2.75      31.0  T
     SCC iter.                  ...        0 min,  0.286 sec
     gradient                   ...        0 min,  0.229 sec
 * total energy  :  -360.0542304 Eh     change       -0.8547323E-04 Eh
   gradient norm :     0.0034944 Eh/α   predicted    -0.6233056E-04 ( -27.08%)
   displ. norm   :     0.3564883 α      lambda       -0.1079695E-03
   maximum displ.:     0.1457038 α      in ANC's #6, #4, #1, ...

........................................................................
.............................. CYCLE   64 ..............................
........................................................................

 iter      E             dE          RMSdq      gap      omega  full diag
   1   -364.2710750 -0.364271E+03  0.203E-02    2.75       0.0  T
   2   -364.2710787 -0.372976E-05  0.119E-02    2.75       1.0  T
   3   -364.2710770  0.169244E-05  0.394E-03    2.75       1.6  T
   4   -364.2710787 -0.167175E-05  0.165E-03    2.75       3.9  T
   5   -364.2710793 -0.550056E-06  0.399E-04    2.75      16.0  T
   6   -364.2710793 -0.938678E-08  0.227E-04    2.75      28.2  T
     SCC iter.                  ...        0 min,  0.286 sec
     gradient                   ...        0 min,  0.230 sec
 * total energy  :  -360.0543149 Eh     change       -0.8446094E-04 Eh
   gradient norm :     0.0040998 Eh/α   predicted    -0.6084776E-04 ( -27.96%)
   displ. norm   :     0.3778515 α      lambda       -0.1185626E-03
   maximum displ.:     0.1538865 α      in ANC's #6, #4, #1, ...

........................................................................
.............................. CYCLE   65 ..............................
........................................................................

 iter      E             dE          RMSdq      gap      omega  full diag
   1   -364.2711601 -0.364271E+03  0.193E-02    2.75       0.0  T
   2   -364.2711624 -0.231937E-05  0.113E-02    2.75       1.0  T
   3   -364.2711608  0.159462E-05  0.353E-03    2.75       1.8  T
   4   -364.2711626 -0.178508E-05  0.127E-03    2.75       5.0  T
   5   -364.2711629 -0.296398E-06  0.406E-04    2.75      15.7  T
   6   -364.2711629 -0.878276E-08  0.218E-04    2.75      29.2  T
     SCC iter.                  ...        0 min,  0.287 sec
     gradient                   ...        0 min,  0.230 sec
 * total energy  :  -360.0544050 Eh     change       -0.9010236E-04 Eh
   gradient norm :     0.0057705 Eh/α   predicted    -0.6774940E-04 ( -24.81%)
   displ. norm   :     0.4304343 α      lambda       -0.1371219E-03
   maximum displ.:     0.1743971 α      in ANC's #4, #6, #1, ...

........................................................................
.............................. CYCLE   66 ..............................
........................................................................

 iter      E             dE          RMSdq      gap      omega  full diag
   1   -364.2704242 -0.364270E+03  0.227E-02    2.75       0.0  T
   2   -364.2704266 -0.241037E-05  0.134E-02    2.75       1.0  T
   3   -364.2704236  0.305529E-05  0.450E-03    2.75       1.4  T
   4   -364.2704271 -0.356989E-05  0.127E-03    2.75       5.0  T
   5   -364.2704274 -0.256534E-06  0.488E-04    2.75      13.1  T
   6   -364.2704274 -0.106129E-07  0.230E-04    2.75      27.8  T
     SCC iter.                  ...        0 min,  0.286 sec
     gradient                   ...        0 min,  0.230 sec
 * total energy  :  -360.0545046 Eh     change       -0.9964739E-04 Eh
   gradient norm :     0.0062240 Eh/α   predicted    -0.8126635E-04 ( -18.45%)
   displ. norm   :     0.4197427 α      lambda       -0.1442561E-03
   maximum displ.:     0.1729057 α      in ANC's #4, #6, #1, ...
 * RMSD in coord.:     0.4803499 α      energy gain  -0.4786998E-02 Eh

generating ANC from exact Hessian ...
Using Lindh-Hessian (1995)
 Shifting diagonal of input Hessian by    1.0047806914690828E-002
 Lowest  eigenvalues of input Hessian
    0.010000    0.010014    0.010026    0.010038    0.010045    0.000000
    0.000000    0.000000    0.000000    0.000000    0.000000    0.010053
    0.010062    0.010080    0.010109    0.010125    0.010155    0.010173
 Highest eigenvalues
    2.338483    2.338652    2.348798    2.370620    2.397686    2.399002


........................................................................
.............................. CYCLE   67 ..............................
........................................................................

 iter      E             dE          RMSdq      gap      omega  full diag
   1   -364.2711980 -0.364271E+03  0.189E-02    2.75       0.0  T
   2   -364.2712001 -0.206639E-05  0.111E-02    2.75       1.0  T
   3   -364.2711988  0.128170E-05  0.320E-03    2.75       2.0  T
   4   -364.2712003 -0.148360E-05  0.118E-03    2.75       5.4  T
   5   -364.2712005 -0.246682E-06  0.413E-04    2.75      15.5  T
   6   -364.2712005 -0.937058E-08  0.199E-04    2.75      32.1  T
     SCC iter.                  ...        0 min,  0.286 sec
     gradient                   ...        0 min,  0.230 sec
 * total energy  :  -360.0546188 Eh     change       -0.1142024E-03 Eh
   gradient norm :     0.0060300 Eh/α   predicted     0.0000000E+00 (-100.00%)
   displ. norm   :     0.0514766 α      lambda       -0.4973765E-04
   maximum displ.:     0.0139975 α      in ANC's #6, #52, #4, ...

........................................................................
.............................. CYCLE   68 ..............................
........................................................................

 iter      E             dE          RMSdq      gap      omega  full diag
   1   -364.2723088 -0.364272E+03  0.651E-03    2.75       0.0  T
   2   -364.2723095 -0.701800E-06  0.383E-03    2.75       1.7  T
   3   -364.2723095  0.535599E-07  0.127E-03    2.75       5.0  T
   4   -364.2723095 -0.740449E-07  0.450E-04    2.75      14.2  T
   5   -364.2723096 -0.357244E-07  0.160E-04    2.75      39.8  T
     SCC iter.                  ...        0 min,  0.239 sec
     gradient                   ...        0 min,  0.230 sec
 * total energy  :  -360.0546795 Eh     change       -0.6066384E-04 Eh
   gradient norm :     0.0025754 Eh/α   predicted    -0.4173112E-04 ( -31.21%)
   displ. norm   :     0.1208383 α      lambda       -0.9939164E-04
   maximum displ.:     0.0358936 α      in ANC's #6, #4, #52, ...

........................................................................
.............................. CYCLE   69 ..............................
........................................................................

 iter      E             dE          RMSdq      gap      omega  full diag
   1   -364.2735504 -0.364274E+03  0.113E-02    2.75       0.0  T
   2   -364.2735520 -0.156217E-05  0.664E-03    2.74       1.0  T
   3   -364.2735517  0.235472E-06  0.206E-03    2.74       3.1  T
   4   -364.2735520 -0.298130E-06  0.791E-04    2.74       8.1  T
   5   -364.2735521 -0.113662E-06  0.274E-04    2.74      23.3  T
     SCC iter.                  ...        0 min,  0.239 sec
     gradient                   ...        0 min,  0.230 sec
 * total energy  :  -360.0547456 Eh     change       -0.6611689E-04 Eh
   gradient norm :     0.0030501 Eh/α   predicted    -0.5042683E-04 ( -23.73%)
   displ. norm   :     0.1250710 α      lambda       -0.5524894E-04
   maximum displ.:     0.0408064 α      in ANC's #6, #4, #52, ...

........................................................................
.............................. CYCLE   70 ..............................
........................................................................

 iter      E             dE          RMSdq      gap      omega  full diag
   1   -364.2736438 -0.364274E+03  0.987E-03    2.74       0.0  T
   2   -364.2736443 -0.448556E-06  0.584E-03    2.74       1.1  T
   3   -364.2736441  0.240450E-06  0.143E-03    2.74       4.5  T
   4   -364.2736444 -0.311199E-06  0.500E-04    2.74      12.8  T
   5   -364.2736444 -0.398375E-07  0.213E-04    2.74      30.0  T
     SCC iter.                  ...        0 min,  0.239 sec
     gradient                   ...        0 min,  0.230 sec
 * total energy  :  -360.0547899 Eh     change       -0.4430298E-04 Eh
   gradient norm :     0.0038663 Eh/α   predicted    -0.2805780E-04 ( -36.67%)
   displ. norm   :     0.2364763 α      lambda       -0.9109323E-04
   maximum displ.:     0.0806783 α      in ANC's #6, #4, #1, ...

........................................................................
.............................. CYCLE   71 ..............................
........................................................................

 iter      E             dE          RMSdq      gap      omega  full diag
   1   -364.2732855 -0.364273E+03  0.172E-02    2.74       0.0  T
   2   -364.2732863 -0.808130E-06  0.102E-02    2.74       1.0  T
   3   -364.2732855  0.809234E-06  0.233E-03    2.74       2.7  T
   4   -364.2732865 -0.101175E-05  0.744E-04    2.74       8.6  T
   5   -364.2732865 -0.801577E-07  0.342E-04    2.74      18.7  T
   6   -364.2732866 -0.402503E-08  0.134E-04    2.74      47.5  T
     SCC iter.                  ...        0 min,  0.287 sec
     gradient                   ...        0 min,  0.230 sec
 * total energy  :  -360.0548582 Eh     change       -0.6829770E-04 Eh
   gradient norm :     0.0036705 Eh/α   predicted    -0.4810107E-04 ( -29.57%)
   displ. norm   :     0.2552746 α      lambda       -0.8048347E-04
   maximum displ.:     0.0922184 α      in ANC's #6, #4, #1, ...

........................................................................
.............................. CYCLE   72 ..............................
........................................................................

 iter      E             dE          RMSdq      gap      omega  full diag
   1   -364.2729027 -0.364273E+03  0.172E-02    2.74       0.0  T
   2   -364.2729034 -0.691995E-06  0.102E-02    2.74       1.0  T
   3   -364.2729025  0.925158E-06  0.236E-03    2.74       2.7  T
   4   -364.2729036 -0.111017E-05  0.711E-04    2.74       9.0  T
   5   -364.2729037 -0.724860E-07  0.319E-04    2.74      20.0  T
   6   -364.2729037 -0.385739E-08  0.134E-04    2.74      47.6  T
     SCC iter.                  ...        0 min,  0.286 sec
     gradient                   ...        0 min,  0.231 sec
 * total energy  :  -360.0549193 Eh     change       -0.6112656E-04 Eh
   gradient norm :     0.0028938 Eh/α   predicted    -0.4287259E-04 ( -29.86%)
   displ. norm   :     0.2584869 α      lambda       -0.7551008E-04
   maximum displ.:     0.0986600 α      in ANC's #6, #4, #1, ...

........................................................................
.............................. CYCLE   73 ..............................
........................................................................

 iter      E             dE          RMSdq      gap      omega  full diag
   1   -364.2729049 -0.364273E+03  0.162E-02    2.74       0.0  T
   2   -364.2729056 -0.692728E-06  0.961E-03    2.74       1.0  T
   3   -364.2729048  0.863499E-06  0.228E-03    2.74       2.8  T
   4   -364.2729058 -0.100915E-05  0.719E-04    2.74       8.9  T
   5   -364.2729059 -0.813419E-07  0.289E-04    2.74      22.1  T
   6   -364.2729059 -0.283796E-08  0.129E-04    2.74      49.4  T
     SCC iter.                  ...        0 min,  0.287 sec
     gradient                   ...        0 min,  0.233 sec
 * total energy  :  -360.0549783 Eh     change       -0.5895876E-04 Eh
   gradient norm :     0.0024736 Eh/α   predicted    -0.4028204E-04 ( -31.68%)
   displ. norm   :     0.2851007 α      lambda       -0.8086312E-04
   maximum displ.:     0.1130843 α      in ANC's #6, #4, #1, ...

........................................................................
.............................. CYCLE   74 ..............................
........................................................................

 iter      E             dE          RMSdq      gap      omega  full diag
   1   -364.2731564 -0.364273E+03  0.169E-02    2.74       0.0  T
   2   -364.2731572 -0.758386E-06  0.100E-02    2.74       1.0  T
   3   -364.2731562  0.993983E-06  0.246E-03    2.74       2.6  T
   4   -364.2731574 -0.116676E-05  0.753E-04    2.74       8.5  T
   5   -364.2731575 -0.870913E-07  0.304E-04    2.74      21.0  T
   6   -364.2731575 -0.276958E-08  0.127E-04    2.74      50.4  T
     SCC iter.                  ...        0 min,  0.287 sec
     gradient                   ...        0 min,  0.230 sec
 * total energy  :  -360.0550429 Eh     change       -0.6465984E-04 Eh
   gradient norm :     0.0029354 Eh/α   predicted    -0.4371961E-04 ( -32.39%)
   displ. norm   :     0.3429486 α      lambda       -0.9431403E-04
   maximum displ.:     0.1387702 α      in ANC's #6, #4, #1, ...

........................................................................
.............................. CYCLE   75 ..............................
........................................................................

 iter      E             dE          RMSdq      gap      omega  full diag
   1   -364.2733787 -0.364273E+03  0.194E-02    2.74       0.0  T
   2   -364.2733796 -0.829835E-06  0.115E-02    2.74       1.0  T
   3   -364.2733783  0.124736E-05  0.275E-03    2.74       2.3  T
   4   -364.2733798 -0.150847E-05  0.779E-04    2.74       8.2  T
   5   -364.2733799 -0.776703E-07  0.350E-04    2.74      18.2  T
   6   -364.2733799 -0.364719E-08  0.129E-04    2.74      49.4  T
     SCC iter.                  ...        0 min,  0.286 sec
     gradient                   ...        0 min,  0.230 sec
 * total energy  :  -360.0551203 Eh     change       -0.7735387E-04 Eh
   gradient norm :     0.0035814 Eh/α   predicted    -0.5271609E-04 ( -31.85%)
   displ. norm   :     0.4218049 α      lambda       -0.1151293E-03
   maximum displ.:     0.1727065 α      in ANC's #6, #4, #1, ...

........................................................................
.............................. CYCLE   76 ..............................
........................................................................

 iter      E             dE          RMSdq      gap      omega  full diag
   1   -364.2733940 -0.364273E+03  0.229E-02    2.74       0.0  T
   2   -364.2733950 -0.100230E-05  0.136E-02    2.74       1.0  T
   3   -364.2733935  0.149519E-05  0.303E-03    2.74       2.1  T
   4   -364.2733954 -0.186640E-05  0.856E-04    2.74       7.5  T
   5   -364.2733955 -0.782496E-07  0.408E-04    2.74      15.7  T
   6   -364.2733955 -0.582423E-08  0.143E-04    2.74      44.5  T
     SCC iter.                  ...        0 min,  0.286 sec
     gradient                   ...        0 min,  0.230 sec
 * total energy  :  -360.0552162 Eh     change       -0.9594353E-04 Eh
   gradient norm :     0.0038580 Eh/α   predicted    -0.6784985E-04 ( -29.28%)
   displ. norm   :     0.4884543 α      lambda       -0.1335849E-03
   maximum displ.:     0.2023762 α      in ANC's #6, #4, #1, ...

........................................................................
.............................. CYCLE   77 ..............................
........................................................................

 iter      E             dE          RMSdq      gap      omega  full diag
   1   -364.2732711 -0.364273E+03  0.252E-02    2.73       0.0  T
   2   -364.2732724 -0.133378E-05  0.149E-02    2.73       1.0  T
   3   -364.2732710  0.140068E-05  0.306E-03    2.73       2.1  T
   4   -364.2732728 -0.179320E-05  0.101E-03    2.73       6.3  T
   5   -364.2732729 -0.127003E-06  0.458E-04    2.73      13.9  T
   6   -364.2732729 -0.805545E-08  0.165E-04    2.73      38.7  T
     SCC iter.                  ...        0 min,  0.286 sec
     gradient                   ...        0 min,  0.231 sec
 * total energy  :  -360.0553277 Eh     change       -0.1114440E-03 Eh
   gradient norm :     0.0036736 Eh/α   predicted    -0.8272856E-04 ( -25.77%)
   displ. norm   :     0.5211629 α      lambda       -0.1402517E-03
   maximum displ.:     0.2191202 α      in ANC's #6, #4, #1, ...

........................................................................
.............................. CYCLE   78 ..............................
........................................................................

 iter      E             dE          RMSdq      gap      omega  full diag
   1   -364.2732054 -0.364273E+03  0.253E-02    2.73       0.0  T
   2   -364.2732071 -0.170014E-05  0.150E-02    2.73       1.0  T
   3   -364.2732061  0.996118E-06  0.280E-03    2.73       2.3  T
   4   -364.2732074 -0.130872E-05  0.112E-03    2.73       5.7  T
   5   -364.2732076 -0.187674E-06  0.474E-04    2.73      13.5  T
   6   -364.2732076 -0.955760E-08  0.178E-04    2.73      35.8  T
     SCC iter.                  ...        0 min,  0.286 sec
     gradient                   ...        0 min,  0.231 sec
 * total energy  :  -360.0554445 Eh     change       -0.1167798E-03 Eh
   gradient norm :     0.0032294 Eh/α   predicted    -0.8917398E-04 ( -23.64%)
   displ. norm   :     0.5330281 α      lambda       -0.1386027E-03
   maximum displ.:     0.2277357 α      in ANC's #6, #4, #1, ...

........................................................................
.............................. CYCLE   79 ..............................
........................................................................

 iter      E             dE          RMSdq      gap      omega  full diag
   1   -364.2733871 -0.364273E+03  0.244E-02    2.72       0.0  T
   2   -364.2733890 -0.193549E-05  0.144E-02    2.72       1.0  T
   3   -364.2733885  0.556370E-06  0.243E-03    2.72       2.6  T
   4   -364.2733893 -0.808796E-06  0.105E-03    2.72       6.1  T
   5   -364.2733894 -0.170725E-06  0.455E-04    2.72      14.0  T
   6   -364.2733894 -0.106152E-07  0.182E-04    2.72      35.2  T
     SCC iter.                  ...        0 min,  0.287 sec
     gradient                   ...        0 min,  0.231 sec
 * total energy  :  -360.0555607 Eh     change       -0.1162361E-03 Eh
   gradient norm :     0.0030737 Eh/α   predicted    -0.8899617E-04 ( -23.43%)
   displ. norm   :     0.5520260 α      lambda       -0.1393649E-03
   maximum displ.:     0.2390049 α      in ANC's #6, #4, #1, ...

........................................................................
.............................. CYCLE   80 ..............................
........................................................................

 iter      E             dE          RMSdq      gap      omega  full diag
   1   -364.2736518 -0.364274E+03  0.243E-02    2.72       0.0  T
   2   -364.2736537 -0.191158E-05  0.143E-02    2.72       1.0  T
   3   -364.2736533  0.399471E-06  0.222E-03    2.72       2.9  T
   4   -364.2736540 -0.639296E-06  0.954E-04    2.72       6.7  T
   5   -364.2736541 -0.133044E-06  0.435E-04    2.72      14.7  T
     SCC iter.                  ...        0 min,  0.239 sec
     gradient                   ...        0 min,  0.232 sec
 * total energy  :  -360.0556800 Eh     change       -0.1193308E-03 Eh
   gradient norm :     0.0034030 Eh/α   predicted    -0.9091908E-04 ( -23.81%)
   displ. norm   :     0.5800101 α      lambda       -0.1500062E-03
   maximum displ.:     0.2535859 α      in ANC's #6, #4, #1, ...

........................................................................
.............................. CYCLE   81 ..............................
........................................................................

 iter      E             dE          RMSdq      gap      omega  full diag
   1   -364.2741869 -0.364274E+03  0.249E-02    2.72       0.0  T
   2   -364.2741887 -0.177347E-05  0.147E-02    2.72       1.0  T
   3   -364.2741881  0.519418E-06  0.226E-03    2.72       2.8  T
   4   -364.2741889 -0.724477E-06  0.996E-04    2.72       6.4  T
   5   -364.2741890 -0.155563E-06  0.416E-04    2.72      15.4  T
     SCC iter.                  ...        0 min,  0.239 sec
     gradient                   ...        0 min,  0.232 sec
 * total energy  :  -360.0558108 Eh     change       -0.1307838E-03 Eh
   gradient norm :     0.0037105 Eh/α   predicted    -0.1002412E-03 ( -23.35%)
   displ. norm   :     0.6283625 α      lambda       -0.1674181E-03
   maximum displ.:     0.2760121 α      in ANC's #6, #4, #1, ...

........................................................................
.............................. CYCLE   82 ..............................
........................................................................

 iter      E             dE          RMSdq      gap      omega  full diag
   1   -364.2743843 -0.364274E+03  0.267E-02    2.71       0.0  T
   2   -364.2743858 -0.147205E-05  0.158E-02    2.71       1.0  T
   3   -364.2743845  0.132535E-05  0.292E-03    2.71       2.2  T
   4   -364.2743861 -0.160603E-05  0.102E-03    2.71       6.3  T
   5   -364.2743863 -0.157004E-06  0.425E-04    2.71      15.0  T
   6   -364.2743863 -0.557486E-08  0.186E-04    2.71      34.3  T
     SCC iter.                  ...        0 min,  0.286 sec
     gradient                   ...        0 min,  0.232 sec
 * total energy  :  -360.0559585 Eh     change       -0.1477028E-03 Eh
   gradient norm :     0.0037259 Eh/α   predicted    -0.1167666E-03 ( -20.94%)
   displ. norm   :     0.6597775 α      lambda       -0.1844806E-03
   maximum displ.:     0.2912209 α      in ANC's #4, #6, #1, ...

........................................................................
.............................. CYCLE   83 ..............................
........................................................................

 iter      E             dE          RMSdq      gap      omega  full diag
   1   -364.2749551 -0.364275E+03  0.279E-02    2.71       0.0  T
   2   -364.2749564 -0.133802E-05  0.165E-02    2.71       1.0  T
   3   -364.2749538  0.264545E-05  0.379E-03    2.71       1.7  T
   4   -364.2749569 -0.307153E-05  0.954E-04    2.71       6.7  T
   5   -364.2749570 -0.120762E-06  0.427E-04    2.71      14.9  T
   6   -364.2749570 -0.526381E-08  0.190E-04    2.71      33.6  T
     SCC iter.                  ...        0 min,  0.285 sec
     gradient                   ...        0 min,  0.231 sec
 * total energy  :  -360.0561201 Eh     change       -0.1615483E-03 Eh
   gradient norm :     0.0035230 Eh/α   predicted    -0.1324002E-03 ( -18.04%)
   displ. norm   :     0.6903220 α      lambda       -0.1915458E-03
   maximum displ.:     0.3060448 α      in ANC's #4, #6, #1, ...

........................................................................
.............................. CYCLE   84 ..............................
........................................................................

 iter      E             dE          RMSdq      gap      omega  full diag
   1   -364.2743013 -0.364274E+03  0.291E-02    2.71       0.0  T
   2   -364.2743026 -0.128185E-05  0.173E-02    2.71       1.0  T
   3   -364.2742991  0.355137E-05  0.430E-03    2.71       1.5  T
   4   -364.2743032 -0.409091E-05  0.935E-04    2.71       6.8  T
   5   -364.2743033 -0.104996E-06  0.444E-04    2.71      14.4  T
   6   -364.2743033 -0.513359E-08  0.184E-04    2.71      34.8  T
     SCC iter.                  ...        0 min,  0.286 sec
     gradient                   ...        0 min,  0.231 sec
 * total energy  :  -360.0562885 Eh     change       -0.1684685E-03 Eh
   gradient norm :     0.0036590 Eh/α   predicted    -0.1414167E-03 ( -16.06%)
   displ. norm   :     0.6809941 α      lambda       -0.2027950E-03
   maximum displ.:     0.3011902 α      in ANC's #4, #6, #1, ...

........................................................................
.............................. CYCLE   85 ..............................
........................................................................

 iter      E             dE          RMSdq      gap      omega  full diag
   1   -364.2756665 -0.364276E+03  0.290E-02    2.71       0.0  T
   2   -364.2756685 -0.199934E-05  0.172E-02    2.71       1.0  T
   3   -364.2756652  0.331900E-05  0.431E-03    2.71       1.5  T
   4   -364.2756690 -0.375306E-05  0.121E-03    2.71       5.3  T
   5   -364.2756692 -0.249886E-06  0.461E-04    2.71      13.9  T
   6   -364.2756692 -0.711287E-08  0.211E-04    2.71      30.2  T
     SCC iter.                  ...        0 min,  0.285 sec
     gradient                   ...        0 min,  0.232 sec
 * total energy  :  -360.0564603 Eh     change       -0.1718210E-03 Eh
   gradient norm :     0.0043254 Eh/α   predicted    -0.1484231E-03 ( -13.62%)
   displ. norm   :     0.7200375 α      lambda       -0.2063794E-03
   maximum displ.:     0.3221490 α      in ANC's #4, #6, #1, ...

........................................................................
.............................. CYCLE   86 ..............................
........................................................................

 iter      E             dE          RMSdq      gap      omega  full diag
   1   -364.2730718 -0.364273E+03  0.306E-02    2.71       0.0  T
   2   -364.2730735 -0.165469E-05  0.182E-02    2.71       1.0  T
   3   -364.2730705  0.303154E-05  0.410E-03    2.71       1.6  T
   4   -364.2730740 -0.354239E-05  0.113E-03    2.71       5.7  T
   5   -364.2730742 -0.187468E-06  0.496E-04    2.71      12.9  T
   6   -364.2730742 -0.667836E-08  0.165E-04    2.71      38.7  T
     SCC iter.                  ...        0 min,  0.286 sec
     gradient                   ...        0 min,  0.233 sec
 * total energy  :  -360.0566321 Eh     change       -0.1717537E-03 Eh
   gradient norm :     0.0043104 Eh/α   predicted    -0.1566902E-03 (  -8.77%)
   displ. norm   :     0.6550602 α      lambda       -0.2065281E-03
   maximum displ.:     0.2905211 α      in ANC's #4, #6, #1, ...

........................................................................
.............................. CYCLE   87 ..............................
........................................................................

 iter      E             dE          RMSdq      gap      omega  full diag
   1   -364.2747160 -0.364275E+03  0.282E-02    2.71       0.0  T
   2   -364.2747188 -0.280298E-05  0.167E-02    2.71       1.0  T
   3   -364.2747177  0.118709E-05  0.307E-03    2.71       2.1  T
   4   -364.2747190 -0.139209E-05  0.129E-03    2.71       4.9  T
   5   -364.2747194 -0.305949E-06  0.474E-04    2.71      13.5  T
   6   -364.2747194 -0.122918E-07  0.221E-04    2.71      28.9  T
     SCC iter.                  ...        0 min,  0.286 sec
     gradient                   ...        0 min,  0.240 sec
 * total energy  :  -360.0567970 Eh     change       -0.1649120E-03 Eh
   gradient norm :     0.0042930 Eh/α   predicted    -0.1475783E-03 ( -10.51%)
   displ. norm   :     0.6994303 α      lambda       -0.1850119E-03
   maximum displ.:     0.3168198 α      in ANC's #4, #6, #1, ...

........................................................................
.............................. CYCLE   88 ..............................
........................................................................

 iter      E             dE          RMSdq      gap      omega  full diag
   1   -364.2732701 -0.364273E+03  0.290E-02    2.70       0.0  T
   2   -364.2732723 -0.225423E-05  0.172E-02    2.70       1.0  T
   3   -364.2732716  0.745306E-06  0.259E-03    2.70       2.5  T
   4   -364.2732726 -0.982131E-06  0.118E-03    2.70       5.4  T
   5   -364.2732728 -0.231290E-06  0.474E-04    2.70      13.5  T
   6   -364.2732728 -0.101914E-07  0.193E-04    2.70      33.1  T
     SCC iter.                  ...        0 min,  0.287 sec
     gradient                   ...        0 min,  0.234 sec
 * total energy  :  -360.0569549 Eh     change       -0.1578591E-03 Eh
   gradient norm :     0.0039541 Eh/α   predicted    -0.1377662E-03 ( -12.73%)
   displ. norm   :     0.6560398 α      lambda       -0.1957180E-03
   maximum displ.:     0.3002719 α      in ANC's #4, #6, #1, ...

........................................................................
.............................. CYCLE   89 ..............................
........................................................................

 iter      E             dE          RMSdq      gap      omega  full diag
   1   -364.2740317 -0.364274E+03  0.267E-02    2.70       0.0  T
   2   -364.2740338 -0.204527E-05  0.158E-02    2.70       1.0  T
   3   -364.2740328  0.992388E-06  0.292E-03    2.70       2.2  T
   4   -364.2740341 -0.136552E-05  0.998E-04    2.70       6.4  T
   5   -364.2740343 -0.136284E-06  0.486E-04    2.70      13.1  T
   6   -364.2740343 -0.162530E-07  0.197E-04    2.70      32.4  T
     SCC iter.                  ...        0 min,  0.286 sec
     gradient                   ...        0 min,  0.234 sec
 * total energy  :  -360.0571153 Eh     change       -0.1604114E-03 Eh
   gradient norm :     0.0039052 Eh/α   predicted    -0.1399817E-03 ( -12.74%)
   displ. norm   :     0.6932645 α      lambda       -0.1779661E-03
   maximum displ.:     0.3201654 α      in ANC's #4, #6, #1, ...

........................................................................
.............................. CYCLE   90 ..............................
........................................................................

 iter      E             dE          RMSdq      gap      omega  full diag
   1   -364.2736556 -0.364274E+03  0.281E-02    2.70       0.0  T
   2   -364.2736582 -0.261587E-05  0.166E-02    2.70       1.0  T
   3   -364.2736572  0.100808E-05  0.298E-03    2.70       2.1  T
   4   -364.2736584 -0.121973E-05  0.132E-03    2.70       4.8  T
   5   -364.2736587 -0.301157E-06  0.483E-04    2.70      13.2  T
   6   -364.2736587 -0.907932E-08  0.226E-04    2.70      28.2  T
     SCC iter.                  ...        0 min,  0.286 sec
     gradient                   ...        0 min,  0.233 sec
 * total energy  :  -360.0572668 Eh     change       -0.1515468E-03 Eh
   gradient norm :     0.0040107 Eh/α   predicted    -0.1317537E-03 ( -13.06%)
   displ. norm   :     0.6833889 α      lambda       -0.1748145E-03
   maximum displ.:     0.3187415 α      in ANC's #4, #6, #1, ...

........................................................................
.............................. CYCLE   91 ..............................
........................................................................

 iter      E             dE          RMSdq      gap      omega  full diag
   1   -364.2746661 -0.364275E+03  0.261E-02    2.70       0.0  T
   2   -364.2746674 -0.125367E-05  0.155E-02    2.70       1.0  T
   3   -364.2746658  0.155923E-05  0.316E-03    2.70       2.0  T
   4   -364.2746677 -0.192501E-05  0.998E-04    2.70       6.4  T
   5   -364.2746679 -0.131061E-06  0.453E-04    2.70      14.1  T
   6   -364.2746679 -0.595617E-08  0.159E-04    2.70      40.3  T
     SCC iter.                  ...        0 min,  0.287 sec
     gradient                   ...        0 min,  0.234 sec
 * total energy  :  -360.0574157 Eh     change       -0.1488670E-03 Eh
   gradient norm :     0.0039178 Eh/α   predicted    -0.1282333E-03 ( -13.86%)
   displ. norm   :     0.7218850 α      lambda       -0.1770228E-03
   maximum displ.:     0.3395241 α      in ANC's #4, #6, #1, ...

........................................................................
.............................. CYCLE   92 ..............................
........................................................................

 iter      E             dE          RMSdq      gap      omega  full diag
   1   -364.2736198 -0.364274E+03  0.282E-02    2.70       0.0  T
   2   -364.2736215 -0.169762E-05  0.167E-02    2.70       1.0  T
   3   -364.2736187  0.282057E-05  0.406E-03    2.70       1.6  T
   4   -364.2736220 -0.332823E-05  0.113E-03    2.70       5.7  T
   5   -364.2736222 -0.170288E-06  0.488E-04    2.70      13.1  T
   6   -364.2736222 -0.498045E-08  0.227E-04    2.70      28.1  T
     SCC iter.                  ...        0 min,  0.286 sec
     gradient                   ...        0 min,  0.234 sec
 * total energy  :  -360.0575643 Eh     change       -0.1486426E-03 Eh
   gradient norm :     0.0037120 Eh/α   predicted    -0.1346411E-03 (  -9.42%)
   displ. norm   :     0.6843937 α      lambda       -0.1774493E-03
   maximum displ.:     0.3244730 α      in ANC's #4, #6, #1, ...
 * RMSD in coord.:     0.7838192 α      energy gain  -0.3059734E-02 Eh

generating ANC from exact Hessian ...
Using Lindh-Hessian (1995)
 Shifting diagonal of input Hessian by    1.0049230686585581E-002
 Lowest  eigenvalues of input Hessian
    0.010000    0.010016    0.010026    0.010040    0.010045    0.000000
    0.000000    0.000000    0.000000    0.000000    0.000000    0.010054
    0.010063    0.010079    0.010110    0.010129    0.010162    0.010177
 Highest eigenvalues
    2.338037    2.339862    2.353804    2.378976    2.394349    2.396916


........................................................................
.............................. CYCLE   93 ..............................
........................................................................

 iter      E             dE          RMSdq      gap      omega  full diag
   1   -364.2764883 -0.364276E+03  0.256E-02    2.70       0.0  T
   2   -364.2764900 -0.175084E-05  0.153E-02    2.70       1.0  T
   3   -364.2764863  0.373011E-05  0.459E-03    2.70       1.4  T
   4   -364.2764906 -0.433585E-05  0.117E-03    2.70       5.5  T
   5   -364.2764908 -0.200302E-06  0.515E-04    2.70      12.4  T
   6   -364.2764908 -0.644633E-08  0.188E-04    2.70      34.0  T
     SCC iter.                  ...        0 min,  0.286 sec
     gradient                   ...        0 min,  0.235 sec
 * total energy  :  -360.0577051 Eh     change       -0.1407744E-03 Eh
   gradient norm :     0.0037106 Eh/α   predicted     0.0000000E+00 (-100.00%)
   displ. norm   :     0.0407718 α      lambda       -0.4409636E-04
   maximum displ.:     0.0124333 α      in ANC's #4, #30, #32, ...

........................................................................
.............................. CYCLE   94 ..............................
........................................................................

 iter      E             dE          RMSdq      gap      omega  full diag
   1   -364.2760205 -0.364276E+03  0.447E-03    2.70       0.0  T
   2   -364.2760207 -0.226664E-06  0.266E-03    2.70       2.4  T
   3   -364.2760206  0.575574E-07  0.868E-04    2.70       7.4  T
   4   -364.2760207 -0.821166E-07  0.321E-04    2.70      19.9  T
     SCC iter.                  ...        0 min,  0.192 sec
     gradient                   ...        0 min,  0.234 sec
 * total energy  :  -360.0577418 Eh     change       -0.3670066E-04 Eh
   gradient norm :     0.0018510 Eh/α   predicted    -0.2224515E-04 ( -39.39%)
   displ. norm   :     0.1849264 α      lambda       -0.7441446E-04
   maximum displ.:     0.0611870 α      in ANC's #4, #32, #1, ...

........................................................................
.............................. CYCLE   95 ..............................
........................................................................

 iter      E             dE          RMSdq      gap      omega  full diag
   1   -364.2752581 -0.364275E+03  0.170E-02    2.70       0.0  T
   2   -364.2752603 -0.227749E-05  0.101E-02    2.70       1.0  T
   3   -364.2752594  0.896012E-06  0.296E-03    2.70       2.2  T
   4   -364.2752606 -0.111858E-05  0.119E-03    2.70       5.4  T
   5   -364.2752608 -0.253071E-06  0.440E-04    2.70      14.5  T
   6   -364.2752608 -0.937081E-08  0.208E-04    2.70      30.7  T
     SCC iter.                  ...        0 min,  0.287 sec
     gradient                   ...        0 min,  0.234 sec
 * total energy  :  -360.0577943 Eh     change       -0.5250282E-04 Eh
   gradient norm :     0.0038462 Eh/α   predicted    -0.4007867E-04 ( -23.66%)
   displ. norm   :     0.0423372 α      lambda       -0.2192166E-04
   maximum displ.:     0.0163593 α      in ANC's #4, #32, #1, ...

........................................................................
.............................. CYCLE   96 ..............................
........................................................................

 iter      E             dE          RMSdq      gap      omega  full diag
   1   -364.2756427 -0.364276E+03  0.313E-03    2.70       0.0  T
   2   -364.2756427 -0.740869E-07  0.186E-03    2.70       3.4  T
   3   -364.2756427  0.475528E-07  0.622E-04    2.70      10.3  T
   4   -364.2756427 -0.560365E-07  0.220E-04    2.70      29.0  T
     SCC iter.                  ...        0 min,  0.192 sec
     gradient                   ...        0 min,  0.235 sec
 * total energy  :  -360.0578163 Eh     change       -0.2195165E-04 Eh
   gradient norm :     0.0029171 Eh/α   predicted    -0.1198635E-04 ( -45.40%)
   displ. norm   :     0.2870268 α      lambda       -0.1280700E-03
   maximum displ.:     0.1092919 α      in ANC's #4, #32, #1, ...

........................................................................
.............................. CYCLE   97 ..............................
........................................................................

 iter      E             dE          RMSdq      gap      omega  full diag
   1   -364.2768101 -0.364277E+03  0.192E-02    2.71       0.0  T
   2   -364.2768122 -0.212150E-05  0.114E-02    2.71       1.0  T
   3   -364.2768107  0.149594E-05  0.337E-03    2.71       1.9  T
   4   -364.2768125 -0.180112E-05  0.122E-03    2.71       5.2  T
   5   -364.2768128 -0.261964E-06  0.453E-04    2.71      14.1  T
   6   -364.2768128 -0.567741E-08  0.212E-04    2.71      30.2  T
     SCC iter.                  ...        0 min,  0.287 sec
     gradient                   ...        0 min,  0.234 sec
 * total energy  :  -360.0579010 Eh     change       -0.8471048E-04 Eh
   gradient norm :     0.0022986 Eh/α   predicted    -0.6965156E-04 ( -17.78%)
   displ. norm   :     0.2425568 α      lambda       -0.5210523E-04
   maximum displ.:     0.0952585 α      in ANC's #4, #1, #32, ...

........................................................................
.............................. CYCLE   98 ..............................
........................................................................

 iter      E             dE          RMSdq      gap      omega  full diag
   1   -364.2765357 -0.364277E+03  0.156E-02    2.71       0.0  T
   2   -364.2765367 -0.106875E-05  0.921E-03    2.71       1.0  T
   3   -364.2765359  0.834627E-06  0.249E-03    2.71       2.6  T
   4   -364.2765369 -0.101687E-05  0.906E-04    2.71       7.1  T
   5   -364.2765370 -0.130807E-06  0.359E-04    2.71      17.8  T
   6   -364.2765370 -0.445192E-08  0.172E-04    2.71      37.1  T
     SCC iter.                  ...        0 min,  0.286 sec
     gradient                   ...        0 min,  0.234 sec
 * total energy  :  -360.0579422 Eh     change       -0.4120614E-04 Eh
   gradient norm :     0.0031240 Eh/α   predicted    -0.2758728E-04 ( -33.05%)
   displ. norm   :     0.3078012 α      lambda       -0.6190900E-04
   maximum displ.:     0.1243972 α      in ANC's #4, #1, #8, ...

........................................................................
.............................. CYCLE   99 ..............................
........................................................................

 iter      E             dE          RMSdq      gap      omega  full diag
   1   -364.2760254 -0.364276E+03  0.185E-02    2.71       0.0  T
   2   -364.2760273 -0.186019E-05  0.109E-02    2.71       1.0  T
   3   -364.2760263  0.997424E-06  0.293E-03    2.71       2.2  T
   4   -364.2760275 -0.120973E-05  0.116E-03    2.71       5.5  T
   5   -364.2760277 -0.223921E-06  0.439E-04    2.71      14.6  T
   6   -364.2760277 -0.927753E-08  0.227E-04    2.71      28.2  T
     SCC iter.                  ...        0 min,  0.286 sec
     gradient                   ...        0 min,  0.236 sec
 * total energy  :  -360.0579918 Eh     change       -0.4958097E-04 Eh
   gradient norm :     0.0024729 Eh/α   predicted    -0.3388927E-04 ( -31.65%)
   displ. norm   :     0.3202698 α      lambda       -0.6249337E-04
   maximum displ.:     0.1349004 α      in ANC's #4, #1, #8, ...

........................................................................
.............................. CYCLE  100 ..............................
........................................................................

 iter      E             dE          RMSdq      gap      omega  full diag
   1   -364.2756688 -0.364276E+03  0.178E-02    2.72       0.0  T
   2   -364.2756705 -0.169222E-05  0.105E-02    2.72       1.0  T
   3   -364.2756697  0.796710E-06  0.268E-03    2.72       2.4  T
   4   -364.2756707 -0.985862E-06  0.107E-03    2.72       6.0  T
   5   -364.2756709 -0.186449E-06  0.421E-04    2.72      15.2  T
   6   -364.2756709 -0.983249E-08  0.217E-04    2.72      29.5  T
     SCC iter.                  ...        0 min,  0.286 sec
     gradient                   ...        0 min,  0.235 sec
 * total energy  :  -360.0580407 Eh     change       -0.4896645E-04 Eh
   gradient norm :     0.0015189 Eh/α   predicted    -0.3445410E-04 ( -29.64%)
   displ. norm   :     0.4431661 α      lambda       -0.5442875E-04
   maximum displ.:     0.1944433 α      in ANC's #4, #1, #8, ...

........................................................................
.............................. CYCLE  101 ..............................
........................................................................

 iter      E             dE          RMSdq      gap      omega  full diag
   1   -364.2756001 -0.364276E+03  0.225E-02    2.72       0.0  T
   2   -364.2756020 -0.188889E-05  0.133E-02    2.72       1.0  T
   3   -364.2756008  0.116486E-05  0.306E-03    2.72       2.1  T
   4   -364.2756023 -0.148157E-05  0.114E-03    2.72       5.6  T
   5   -364.2756025 -0.190983E-06  0.491E-04    2.72      13.0  T
   6   -364.2756025 -0.112545E-07  0.245E-04    2.72      26.1  T
     SCC iter.                  ...        0 min,  0.286 sec
     gradient                   ...        0 min,  0.234 sec
 * total energy  :  -360.0580975 Eh     change       -0.5674965E-04 Eh
   gradient norm :     0.0027867 Eh/α   predicted    -0.2959049E-04 ( -47.86%)
   displ. norm   :     0.1946925 α      lambda       -0.3907783E-04
   maximum displ.:     0.0890843 α      in ANC's #4, #8, #1, ...

........................................................................
.............................. CYCLE  102 ..............................
........................................................................

 iter      E             dE          RMSdq      gap      omega  full diag
   1   -364.2758308 -0.364276E+03  0.904E-03    2.72       0.0  T
   2   -364.2758311 -0.231418E-06  0.535E-03    2.72       1.2  T
   3   -364.2758309  0.181349E-06  0.112E-03    2.72       5.7  T
   4   -364.2758311 -0.224748E-06  0.406E-04    2.72      15.7  T
   5   -364.2758311 -0.253598E-07  0.176E-04    2.72      36.3  T
     SCC iter.                  ...        0 min,  0.239 sec
     gradient                   ...        0 min,  0.234 sec
 * total energy  :  -360.0581326 Eh     change       -0.3510950E-04 Eh
   gradient norm :     0.0024450 Eh/α   predicted    -0.2028007E-04 ( -42.24%)
   displ. norm   :     0.3608381 α      lambda       -0.8593473E-04
   maximum displ.:     0.1651270 α      in ANC's #4, #8, #1, ...

........................................................................
.............................. CYCLE  103 ..............................
........................................................................

 iter      E             dE          RMSdq      gap      omega  full diag
   1   -364.2763100 -0.364276E+03  0.165E-02    2.72       0.0  T
   2   -364.2763113 -0.130858E-05  0.976E-03    2.72       1.0  T
   3   -364.2763104  0.864416E-06  0.252E-03    2.72       2.5  T
   4   -364.2763114 -0.974682E-06  0.905E-04    2.72       7.1  T
   5   -364.2763115 -0.156588E-06  0.305E-04    2.72      20.9  T
     SCC iter.                  ...        0 min,  0.239 sec
     gradient                   ...        0 min,  0.236 sec
 * total energy  :  -360.0582007 Eh     change       -0.6812028E-04 Eh
   gradient norm :     0.0019736 Eh/α   predicted    -0.4856305E-04 ( -28.71%)
   displ. norm   :     0.6208127 α      lambda       -0.7445434E-04
   maximum displ.:     0.2885271 α      in ANC's #4, #8, #1, ...

........................................................................
.............................. CYCLE  104 ..............................
........................................................................

 iter      E             dE          RMSdq      gap      omega  full diag
   1   -364.2749544 -0.364275E+03  0.274E-02    2.72       0.0  T
   2   -364.2749567 -0.229055E-05  0.162E-02    2.72       1.0  T
   3   -364.2749549  0.173710E-05  0.344E-03    2.72       1.9  T
   4   -364.2749569 -0.198462E-05  0.129E-03    2.72       4.9  T
   5   -364.2749572 -0.299141E-06  0.469E-04    2.72      13.6  T
   6   -364.2749572 -0.745212E-08  0.211E-04    2.72      30.3  T
     SCC iter.                  ...        0 min,  0.286 sec
     gradient                   ...        0 min,  0.235 sec
 * total energy  :  -360.0582759 Eh     change       -0.7523050E-04 Eh
   gradient norm :     0.0026790 Eh/α   predicted    -0.4360550E-04 ( -42.04%)
   displ. norm   :     0.2501442 α      lambda       -0.4337873E-04
   maximum displ.:     0.1194238 α      in ANC's #4, #8, #1, ...

........................................................................
.............................. CYCLE  105 ..............................
........................................................................

 iter      E             dE          RMSdq      gap      omega  full diag
   1   -364.2752377 -0.364275E+03  0.101E-02    2.72       0.0  T
   2   -364.2752381 -0.413216E-06  0.598E-03    2.72       1.1  T
   3   -364.2752378  0.368035E-06  0.156E-03    2.72       4.1  T
   4   -364.2752382 -0.389307E-06  0.577E-04    2.72      11.1  T
   5   -364.2752382 -0.650354E-07  0.169E-04    2.72      37.9  T
     SCC iter.                  ...        0 min,  0.239 sec
     gradient                   ...        0 min,  0.236 sec
 * total energy  :  -360.0583143 Eh     change       -0.3838570E-04 Eh
   gradient norm :     0.0019621 Eh/α   predicted    -0.2304760E-04 ( -39.96%)
   displ. norm   :     0.6056660 α      lambda       -0.8664514E-04
   maximum displ.:     0.2904567 α      in ANC's #4, #8, #1, ...

........................................................................
.............................. CYCLE  106 ..............................
........................................................................

 iter      E             dE          RMSdq      gap      omega  full diag
   1   -364.2756368 -0.364276E+03  0.239E-02    2.72       0.0  T
   2   -364.2756392 -0.240711E-05  0.142E-02    2.72       1.0  T
   3   -364.2756365  0.270001E-05  0.414E-03    2.72       1.5  T
   4   -364.2756394 -0.290384E-05  0.137E-03    2.72       4.7  T
   5   -364.2756398 -0.366256E-06  0.403E-04    2.72      15.8  T
   6   -364.2756398 -0.385324E-08  0.198E-04    2.72      32.3  T
     SCC iter.                  ...        0 min,  0.286 sec
     gradient                   ...        0 min,  0.235 sec
 * total energy  :  -360.0584079 Eh     change       -0.9361703E-04 Eh
   gradient norm :     0.0023647 Eh/α   predicted    -0.5038872E-04 ( -46.18%)
   displ. norm   :     0.3635402 α      lambda       -0.5753857E-04
   maximum displ.:     0.1769400 α      in ANC's #4, #8, #1, ...

........................................................................
.............................. CYCLE  107 ..............................
........................................................................

 iter      E             dE          RMSdq      gap      omega  full diag
   1   -364.2749502 -0.364275E+03  0.139E-02    2.72       0.0  T
   2   -364.2749510 -0.717345E-06  0.822E-03    2.72       1.0  T
   3   -364.2749501  0.880952E-06  0.230E-03    2.72       2.8  T
   4   -364.2749510 -0.960031E-06  0.734E-04    2.72       8.7  T
   5   -364.2749511 -0.102171E-06  0.232E-04    2.72      27.5  T
     SCC iter.                  ...        0 min,  0.239 sec
     gradient                   ...        0 min,  0.235 sec
 * total energy  :  -360.0584562 Eh     change       -0.4825222E-04 Eh
   gradient norm :     0.0021888 Eh/α   predicted    -0.3257243E-04 ( -32.50%)
   displ. norm   :     0.4268372 α      lambda       -0.7398053E-04
   maximum displ.:     0.2091624 α      in ANC's #4, #8, #1, ...

........................................................................
.............................. CYCLE  108 ..............................
........................................................................

 iter      E             dE          RMSdq      gap      omega  full diag
   1   -364.2752849 -0.364275E+03  0.160E-02    2.72       0.0  T
   2   -364.2752854 -0.482743E-06  0.951E-03    2.72       1.0  T
   3   -364.2752840  0.141654E-05  0.273E-03    2.72       2.3  T
   4   -364.2752856 -0.160447E-05  0.556E-04    2.72      11.5  T
   5   -364.2752856 -0.427310E-07  0.245E-04    2.72      26.0  T
   6   -364.2752856 -0.107946E-08  0.102E-04    2.72      62.4  T
     SCC iter.                  ...        0 min,  0.286 sec
     gradient                   ...        0 min,  0.236 sec
 * total energy  :  -360.0585170 Eh     change       -0.6075209E-04 Eh
   gradient norm :     0.0021905 Eh/α   predicted    -0.4373131E-04 ( -28.02%)
   displ. norm   :     0.4482890 α      lambda       -0.7201624E-04
   maximum displ.:     0.2225737 α      in ANC's #4, #8, #1, ...

........................................................................
.............................. CYCLE  109 ..............................
........................................................................

 iter      E             dE          RMSdq      gap      omega  full diag
   1   -364.2755647 -0.364276E+03  0.167E-02    2.72       0.0  T
   2   -364.2755653 -0.543315E-06  0.992E-03    2.72       1.0  T
   3   -364.2755639  0.139078E-05  0.273E-03    2.72       2.3  T
   4   -364.2755654 -0.157011E-05  0.601E-04    2.72      10.6  T
   5   -364.2755655 -0.533606E-07  0.249E-04    2.72      25.6  T
   6   -364.2755655 -0.165420E-08  0.113E-04    2.72      56.7  T
     SCC iter.                  ...        0 min,  0.286 sec
     gradient                   ...        0 min,  0.236 sec
 * total energy  :  -360.0585745 Eh     change       -0.5759216E-04 Eh
   gradient norm :     0.0016363 Eh/α   predicted    -0.4324541E-04 ( -24.91%)
   displ. norm   :     0.6264991 α      lambda       -0.6095420E-04
   maximum displ.:     0.3155161 α      in ANC's #4, #8, #1, ...

........................................................................
.............................. CYCLE  110 ..............................
........................................................................

 iter      E             dE          RMSdq      gap      omega  full diag
   1   -364.2759641 -0.364276E+03  0.227E-02    2.72       0.0  T
   2   -364.2759651 -0.107343E-05  0.135E-02    2.72       1.0  T
   3   -364.2759633  0.186386E-05  0.327E-03    2.73       2.0  T
   4   -364.2759654 -0.210462E-05  0.912E-04    2.73       7.0  T
   5   -364.2759655 -0.140050E-06  0.346E-04    2.73      18.5  T
   6   -364.2759655 -0.350747E-08  0.151E-04    2.73      42.4  T
     SCC iter.                  ...        0 min,  0.286 sec
     gradient                   ...        0 min,  0.237 sec
 * total energy  :  -360.0586394 Eh     change       -0.6487513E-04 Eh
   gradient norm :     0.0016748 Eh/α   predicted    -0.3579600E-04 ( -44.82%)
   displ. norm   :     0.4340778 α      lambda       -0.4211759E-04
   maximum displ.:     0.2223497 α      in ANC's #4, #8, #1, ...

........................................................................
.............................. CYCLE  111 ..............................
........................................................................

 iter      E             dE          RMSdq      gap      omega  full diag
   1   -364.2761075 -0.364276E+03  0.150E-02    2.73       0.0  T
   2   -364.2761080 -0.461956E-06  0.890E-03    2.73       1.0  T
   3   -364.2761069  0.102521E-05  0.242E-03    2.73       2.6  T
   4   -364.2761081 -0.115448E-05  0.582E-04    2.73      11.0  T
   5   -364.2761082 -0.504564E-07  0.230E-04    2.73      27.8  T
   6   -364.2761082 -0.119576E-08  0.118E-04    2.73      54.1  T
     SCC iter.                  ...        0 min,  0.287 sec
     gradient                   ...        0 min,  0.236 sec
 * total energy  :  -360.0586903 Eh     change       -0.5088025E-04 Eh
   gradient norm :     0.0019644 Eh/α   predicted    -0.2282325E-04 ( -55.14%)
   displ. norm   :     0.5245444 α      lambda       -0.6221899E-04
   maximum displ.:     0.2700123 α      in ANC's #4, #8, #1, ...

........................................................................
.............................. CYCLE  112 ..............................
........................................................................

 iter      E             dE          RMSdq      gap      omega  full diag
   1   -364.2765886 -0.364277E+03  0.179E-02    2.73       0.0  T
   2   -364.2765895 -0.906753E-06  0.106E-02    2.73       1.0  T
   3   -364.2765877  0.187090E-05  0.329E-03    2.73       1.9  T
   4   -364.2765897 -0.209294E-05  0.814E-04    2.73       7.8  T
   5   -364.2765899 -0.105421E-06  0.301E-04    2.73      21.2  T
   6   -364.2765899 -0.279164E-08  0.157E-04    2.73      40.8  T
     SCC iter.                  ...        0 min,  0.293 sec
     gradient                   ...        0 min,  0.237 sec
 * total energy  :  -360.0587589 Eh     change       -0.6860677E-04 Eh
   gradient norm :     0.0021038 Eh/α   predicted    -0.3491534E-04 ( -49.11%)
   displ. norm   :     0.3632182 α      lambda       -0.5330126E-04
   maximum displ.:     0.1888587 α      in ANC's #4, #8, #1, ...

........................................................................
.............................. CYCLE  113 ..............................
........................................................................

 iter      E             dE          RMSdq      gap      omega  full diag
   1   -364.2762307 -0.364276E+03  0.121E-02    2.73       0.0  T
   2   -364.2762309 -0.243051E-06  0.721E-03    2.73       1.0  T
   3   -364.2762296  0.134302E-05  0.271E-03    2.73       2.4  T
   4   -364.2762311 -0.151930E-05  0.394E-04    2.73      16.2  T
   5   -364.2762311 -0.140379E-07  0.199E-04    2.73      32.1  T
   6   -364.2762311 -0.283933E-09  0.107E-04    2.73      59.7  T
     SCC iter.                  ...        0 min,  0.287 sec
     gradient                   ...        0 min,  0.236 sec
 * total energy  :  -360.0588038 Eh     change       -0.4491050E-04 Eh
   gradient norm :     0.0017541 Eh/α   predicted    -0.3017205E-04 ( -32.82%)
   displ. norm   :     0.6440865 α      lambda       -0.5982016E-04
   maximum displ.:     0.3371254 α      in ANC's #4, #8, #1, ...

........................................................................
.............................. CYCLE  114 ..............................
........................................................................

 iter      E             dE          RMSdq      gap      omega  full diag
   1   -364.2758407 -0.364276E+03  0.212E-02    2.73       0.0  T
   2   -364.2758416 -0.899018E-06  0.126E-02    2.73       1.0  T
   3   -364.2758371  0.442902E-05  0.498E-03    2.73       1.3  T
   4   -364.2758421 -0.502106E-05  0.726E-04    2.73       8.8  T
   5   -364.2758422 -0.535313E-07  0.357E-04    2.73      17.9  T
   6   -364.2758422 -0.140898E-08  0.198E-04    2.73      32.2  T
     SCC iter.                  ...        0 min,  0.287 sec
     gradient                   ...        0 min,  0.236 sec
 * total energy  :  -360.0588689 Eh     change       -0.6510657E-04 Eh
   gradient norm :     0.0017566 Eh/α   predicted    -0.3542586E-04 ( -45.59%)
   displ. norm   :     0.4849088 α      lambda       -0.3849601E-04
   maximum displ.:     0.2567557 α      in ANC's #4, #8, #1, ...

........................................................................
.............................. CYCLE  115 ..............................
........................................................................

 iter      E             dE          RMSdq      gap      omega  full diag
   1   -364.2758530 -0.364276E+03  0.160E-02    2.73       0.0  T
   2   -364.2758535 -0.503756E-06  0.951E-03    2.73       1.0  T
   3   -364.2758515  0.199747E-05  0.335E-03    2.73       1.9  T
   4   -364.2758538 -0.225913E-05  0.537E-04    2.73      11.9  T
   5   -364.2758538 -0.320387E-07  0.255E-04    2.73      25.1  T
   6   -364.2758538 -0.118644E-08  0.140E-04    2.73      45.7  T
     SCC iter.                  ...        0 min,  0.286 sec
     gradient                   ...        0 min,  0.237 sec
 * total energy  :  -360.0589173 Eh     change       -0.4838316E-04 Eh
   gradient norm :     0.0014843 Eh/α   predicted    -0.2126298E-04 ( -56.05%)
   displ. norm   :     0.5335141 α      lambda       -0.5198027E-04
   maximum displ.:     0.2819965 α      in ANC's #4, #8, #1, ...

........................................................................
.............................. CYCLE  116 ..............................
........................................................................

 iter      E             dE          RMSdq      gap      omega  full diag
   1   -364.2765485 -0.364277E+03  0.194E-02    2.73       0.0  T
   2   -364.2765492 -0.652493E-06  0.115E-02    2.73       1.0  T
   3   -364.2765468  0.242165E-05  0.367E-03    2.73       1.7  T
   4   -364.2765495 -0.274669E-05  0.630E-04    2.73      10.1  T
   5   -364.2765496 -0.457363E-07  0.303E-04    2.73      21.1  T
   6   -364.2765496 -0.239322E-08  0.145E-04    2.73      44.1  T
     SCC iter.                  ...        0 min,  0.286 sec
     gradient                   ...        0 min,  0.237 sec
 * total energy  :  -360.0589807 Eh     change       -0.6337379E-04 Eh
   gradient norm :     0.0016691 Eh/α   predicted    -0.2927967E-04 ( -53.80%)
   displ. norm   :     0.6562880 α      lambda       -0.6450757E-04
   maximum displ.:     0.3464077 α      in ANC's #4, #8, #1, ...

........................................................................
.............................. CYCLE  117 ..............................
........................................................................

 iter      E             dE          RMSdq      gap      omega  full diag
   1   -364.2765281 -0.364277E+03  0.254E-02    2.72       0.0  T
   2   -364.2765296 -0.142412E-05  0.151E-02    2.72       1.0  T
   3   -364.2765265  0.305638E-05  0.421E-03    2.72       1.5  T
   4   -364.2765300 -0.348116E-05  0.992E-04    2.72       6.4  T
   5   -364.2765301 -0.146303E-06  0.408E-04    2.72      15.6  T
   6   -364.2765301 -0.440167E-08  0.187E-04    2.72      34.2  T
     SCC iter.                  ...        0 min,  0.286 sec
     gradient                   ...        0 min,  0.237 sec
 * total energy  :  -360.0590561 Eh     change       -0.7544871E-04 Eh
   gradient norm :     0.0023371 Eh/α   predicted    -0.3842852E-04 ( -49.07%)
   displ. norm   :     0.4507932 α      lambda       -0.6455494E-04
   maximum displ.:     0.2365194 α      in ANC's #4, #8, #1, ...

........................................................................
.............................. CYCLE  118 ..............................
........................................................................

 iter      E             dE          RMSdq      gap      omega  full diag
   1   -364.2762579 -0.364276E+03  0.183E-02    2.72       0.0  T
   2   -364.2762585 -0.602363E-06  0.108E-02    2.72       1.0  T
   3   -364.2762572  0.124618E-05  0.267E-03    2.72       2.4  T
   4   -364.2762587 -0.144140E-05  0.662E-04    2.72       9.7  T
   5   -364.2762587 -0.596362E-07  0.292E-04    2.72      21.9  T
   6   -364.2762587 -0.205483E-08  0.115E-04    2.72      55.6  T
     SCC iter.                  ...        0 min,  0.287 sec
     gradient                   ...        0 min,  0.238 sec
 * total energy  :  -360.0591125 Eh     change       -0.5636159E-04 Eh
   gradient norm :     0.0020878 Eh/α   predicted    -0.3883759E-04 ( -31.09%)
   displ. norm   :     0.5471480 α      lambda       -0.8852615E-04
   maximum displ.:     0.2815451 α      in ANC's #4, #8, #1, ...

........................................................................
.............................. CYCLE  119 ..............................
........................................................................

 iter      E             dE          RMSdq      gap      omega  full diag
   1   -364.2765680 -0.364277E+03  0.237E-02    2.72       0.0  T
   2   -364.2765692 -0.123421E-05  0.140E-02    2.72       1.0  T
   3   -364.2765676  0.162128E-05  0.315E-03    2.72       2.0  T
   4   -364.2765695 -0.189817E-05  0.975E-04    2.72       6.6  T
   5   -364.2765697 -0.144663E-06  0.400E-04    2.72      16.0  T
   6   -364.2765697 -0.444226E-08  0.158E-04    2.72      40.4  T
     SCC iter.                  ...        0 min,  0.288 sec
     gradient                   ...        0 min,  0.238 sec
 * total energy  :  -360.0591871 Eh     change       -0.7462795E-04 Eh
   gradient norm :     0.0021067 Eh/α   predicted    -0.5751485E-04 ( -22.93%)
   displ. norm   :     0.5523460 α      lambda       -0.9035230E-04
   maximum displ.:     0.2808552 α      in ANC's #4, #8, #1, ...

........................................................................
.............................. CYCLE  120 ..............................
........................................................................

 iter      E             dE          RMSdq      gap      omega  full diag
   1   -364.2762491 -0.364276E+03  0.245E-02    2.72       0.0  T
   2   -364.2762506 -0.147504E-05  0.146E-02    2.72       1.0  T
   3   -364.2762491  0.148509E-05  0.308E-03    2.72       2.1  T
   4   -364.2762509 -0.174966E-05  0.108E-03    2.72       5.9  T
   5   -364.2762511 -0.184361E-06  0.427E-04    2.72      15.0  T
   6   -364.2762511 -0.540820E-08  0.172E-04    2.72      37.1  T
     SCC iter.                  ...        0 min,  0.286 sec
     gradient                   ...        0 min,  0.237 sec
 * total energy  :  -360.0592604 Eh     change       -0.7327106E-04 Eh
   gradient norm :     0.0021525 Eh/α   predicted    -0.5895960E-04 ( -19.53%)
   displ. norm   :     0.4917749 α      lambda       -0.7762237E-04
   maximum displ.:     0.2481974 α      in ANC's #4, #8, #1, ...
 * RMSD in coord.:     0.6561926 α      energy gain  -0.1696048E-02 Eh

generating ANC from exact Hessian ...
Using Lindh-Hessian (1995)
 Shifting diagonal of input Hessian by    1.0050099010508882E-002
 Lowest  eigenvalues of input Hessian
    0.010000    0.010018    0.010026    0.010041    0.010048    0.000000
    0.000000    0.000000    0.000000    0.000000    0.000000    0.010053
    0.010065    0.010078    0.010111    0.010130    0.010163    0.010166
 Highest eigenvalues
    2.336023    2.339656    2.355043    2.379174    2.394021    2.394574


........................................................................
.............................. CYCLE  121 ..............................
........................................................................

 iter      E             dE          RMSdq      gap      omega  full diag
   1   -364.2760951 -0.364276E+03  0.218E-02    2.71       0.0  T
   2   -364.2760962 -0.113289E-05  0.129E-02    2.71       1.0  T
   3   -364.2760950  0.122761E-05  0.280E-03    2.71       2.3  T
   4   -364.2760964 -0.145572E-05  0.959E-04    2.71       6.7  T
   5   -364.2760966 -0.139102E-06  0.388E-04    2.71      16.5  T
   6   -364.2760966 -0.420857E-08  0.157E-04    2.71      40.6  T
     SCC iter.                  ...        0 min,  0.286 sec
     gradient                   ...        0 min,  0.238 sec
 * total energy  :  -360.0593224 Eh     change       -0.6196178E-04 Eh
   gradient norm :     0.0021772 Eh/α   predicted     0.0000000E+00 (-100.00%)
   displ. norm   :     0.0328952 α      lambda       -0.2078780E-04
   maximum displ.:     0.0090316 α      in ANC's #31, #12, #29, ...

........................................................................
.............................. CYCLE  122 ..............................
........................................................................

 iter      E             dE          RMSdq      gap      omega  full diag
   1   -364.2767591 -0.364277E+03  0.292E-03    2.71       0.0  T
   2   -364.2767592 -0.151352E-06  0.175E-03    2.71       3.7  T
   3   -364.2767592  0.189880E-07  0.658E-04    2.71       9.7  T
   4   -364.2767592 -0.276600E-07  0.244E-04    2.71      26.2  T
     SCC iter.                  ...        0 min,  0.198 sec
     gradient                   ...        0 min,  0.239 sec
 * total energy  :  -360.0593410 Eh     change       -0.1864134E-04 Eh
   gradient norm :     0.0011390 Eh/α   predicted    -0.1080371E-04 ( -42.04%)
   displ. norm   :     0.2099335 α      lambda       -0.6402694E-04
   maximum displ.:     0.0599739 α      in ANC's #12, #31, #29, ...

........................................................................
.............................. CYCLE  123 ..............................
........................................................................

 iter      E             dE          RMSdq      gap      omega  full diag
   1   -364.2782801 -0.364278E+03  0.159E-02    2.71       0.0  T
   2   -364.2782831 -0.299005E-05  0.943E-03    2.71       1.0  T
   3   -364.2782824  0.757793E-06  0.321E-03    2.71       2.0  T
   4   -364.2782833 -0.934215E-06  0.124E-03    2.71       5.2  T
   5   -364.2782836 -0.296446E-06  0.387E-04    2.71      16.5  T
   6   -364.2782836 -0.107299E-07  0.184E-04    2.71      34.7  T
     SCC iter.                  ...        0 min,  0.287 sec
     gradient                   ...        0 min,  0.238 sec
 * total energy  :  -360.0593812 Eh     change       -0.4023057E-04 Eh
   gradient norm :     0.0034992 Eh/α   predicted    -0.3264082E-04 ( -18.87%)
   displ. norm   :     0.0289344 α      lambda       -0.1684057E-04
   maximum displ.:     0.0091758 α      in ANC's #12, #4, #29, ...

........................................................................
.............................. CYCLE  124 ..............................
........................................................................

 iter      E             dE          RMSdq      gap      omega  full diag
   1   -364.2776811 -0.364278E+03  0.190E-03    2.71       0.0  T
   2   -364.2776813 -0.153680E-06  0.116E-03    2.71       5.5  T
   3   -364.2776813 -0.414070E-08  0.561E-04    2.71      11.4  T
   4   -364.2776813 -0.461142E-08  0.190E-04    2.71      33.6  T
     SCC iter.                  ...        0 min,  0.193 sec
     gradient                   ...        0 min,  0.238 sec
 * total energy  :  -360.0593955 Eh     change       -0.1428169E-04 Eh
   gradient norm :     0.0022468 Eh/α   predicted    -0.8427619E-05 ( -40.99%)
   displ. norm   :     0.1291210 α      lambda       -0.4613941E-04
   maximum displ.:     0.0416051 α      in ANC's #12, #4, #29, ...

........................................................................
.............................. CYCLE  125 ..............................
........................................................................

 iter      E             dE          RMSdq      gap      omega  full diag
   1   -364.2761717 -0.364276E+03  0.649E-03    2.71       0.0  T
   2   -364.2761729 -0.118771E-05  0.390E-03    2.71       1.6  T
   3   -364.2761728  0.793862E-07  0.179E-03    2.71       3.6  T
   4   -364.2761729 -0.115534E-06  0.737E-04    2.71       8.7  T
   5   -364.2761730 -0.104522E-06  0.212E-04    2.71      30.1  T
     SCC iter.                  ...        0 min,  0.240 sec
     gradient                   ...        0 min,  0.238 sec
 * total energy  :  -360.0594247 Eh     change       -0.2921515E-04 Eh
   gradient norm :     0.0015694 Eh/α   predicted    -0.2345443E-04 ( -19.72%)
   displ. norm   :     0.1729507 α      lambda       -0.1798567E-04
   maximum displ.:     0.0572001 α      in ANC's #12, #4, #29, ...

........................................................................
.............................. CYCLE  126 ..............................
........................................................................

 iter      E             dE          RMSdq      gap      omega  full diag
   1   -364.2757107 -0.364276E+03  0.724E-03    2.71       0.0  T
   2   -364.2757110 -0.291671E-06  0.431E-03    2.71       1.5  T
   3   -364.2757107  0.340908E-06  0.149E-03    2.71       4.3  T
   4   -364.2757111 -0.382651E-06  0.459E-04    2.71      13.9  T
   5   -364.2757111 -0.385936E-07  0.155E-04    2.71      41.2  T
     SCC iter.                  ...        0 min,  0.240 sec
     gradient                   ...        0 min,  0.238 sec
 * total energy  :  -360.0594448 Eh     change       -0.2009856E-04 Eh
   gradient norm :     0.0025688 Eh/α   predicted    -0.9129028E-05 ( -54.58%)
   displ. norm   :     0.1577571 α      lambda       -0.2573790E-04
   maximum displ.:     0.0533628 α      in ANC's #12, #4, #10, ...

........................................................................
.............................. CYCLE  127 ..............................
........................................................................

 iter      E             dE          RMSdq      gap      omega  full diag
   1   -364.2762234 -0.364276E+03  0.638E-03    2.71       0.0  T
   2   -364.2762235 -0.136360E-06  0.381E-03    2.71       1.7  T
   3   -364.2762232  0.271525E-06  0.126E-03    2.71       5.1  T
   4   -364.2762236 -0.311288E-06  0.312E-04    2.71      20.5  T
   5   -364.2762236 -0.159064E-07  0.127E-04    2.71      50.4  T
     SCC iter.                  ...        0 min,  0.239 sec
     gradient                   ...        0 min,  0.238 sec
 * total energy  :  -360.0594663 Eh     change       -0.2152402E-04 Eh
   gradient norm :     0.0018542 Eh/α   predicted    -0.1319272E-04 ( -38.71%)
   displ. norm   :     0.3992879 α      lambda       -0.3757601E-04
   maximum displ.:     0.1401000 α      in ANC's #4, #12, #10, ...

........................................................................
.............................. CYCLE  128 ..............................
........................................................................

 iter      E             dE          RMSdq      gap      omega  full diag
   1   -364.2775857 -0.364278E+03  0.158E-02    2.71       0.0  T
   2   -364.2775869 -0.117378E-05  0.944E-03    2.71       1.0  T
   3   -364.2775853  0.150579E-05  0.312E-03    2.71       2.0  T
   4   -364.2775871 -0.171163E-05  0.902E-04    2.71       7.1  T
   5   -364.2775872 -0.151426E-06  0.315E-04    2.71      20.3  T
   6   -364.2775872 -0.392731E-08  0.150E-04    2.71      42.5  T
     SCC iter.                  ...        0 min,  0.286 sec
     gradient                   ...        0 min,  0.238 sec
 * total energy  :  -360.0594979 Eh     change       -0.3156360E-04 Eh
   gradient norm :     0.0012872 Eh/α   predicted    -0.2012230E-04 ( -36.25%)
   displ. norm   :     0.1264379 α      lambda       -0.1282813E-04
   maximum displ.:     0.0504993 α      in ANC's #4, #12, #10, ...

........................................................................
.............................. CYCLE  129 ..............................
........................................................................

 iter      E             dE          RMSdq      gap      omega  full diag
   1   -364.2779367 -0.364278E+03  0.507E-03    2.71       0.0  T
   2   -364.2779368 -0.895037E-07  0.301E-03    2.71       2.1  T
   3   -364.2779367  0.795424E-07  0.740E-04    2.71       8.6  T
   4   -364.2779368 -0.931688E-07  0.251E-04    2.71      25.4  T
     SCC iter.                  ...        0 min,  0.192 sec
     gradient                   ...        0 min,  0.237 sec
 * total energy  :  -360.0595145 Eh     change       -0.1660354E-04 Eh
   gradient norm :     0.0011696 Eh/α   predicted    -0.6461993E-05 ( -61.08%)
   displ. norm   :     0.3313960 α      lambda       -0.4395807E-04
   maximum displ.:     0.1344196 α      in ANC's #4, #12, #10, ...

........................................................................
.............................. CYCLE  130 ..............................
........................................................................

 iter      E             dE          RMSdq      gap      omega  full diag
   1   -364.2782726 -0.364278E+03  0.142E-02    2.71       0.0  T
   2   -364.2782733 -0.680963E-06  0.843E-03    2.71       1.0  T
   3   -364.2782730  0.283631E-06  0.161E-03    2.71       4.0  T
   4   -364.2782734 -0.376862E-06  0.633E-04    2.71      10.1  T
   5   -364.2782735 -0.632400E-07  0.272E-04    2.71      23.5  T
     SCC iter.                  ...        0 min,  0.239 sec
     gradient                   ...        0 min,  0.238 sec
 * total energy  :  -360.0595600 Eh     change       -0.4549719E-04 Eh
   gradient norm :     0.0013072 Eh/α   predicted    -0.2305537E-04 ( -49.33%)
   displ. norm   :     0.3240711 α      lambda       -0.2493761E-04
   maximum displ.:     0.1368779 α      in ANC's #4, #12, #10, ...

........................................................................
.............................. CYCLE  131 ..............................
........................................................................

 iter      E             dE          RMSdq      gap      omega  full diag
   1   -364.2770656 -0.364277E+03  0.126E-02    2.71       0.0  T
   2   -364.2770660 -0.492612E-06  0.747E-03    2.71       1.0  T
   3   -364.2770658  0.210980E-06  0.137E-03    2.71       4.7  T
   4   -364.2770661 -0.270935E-06  0.561E-04    2.71      11.4  T
   5   -364.2770662 -0.515627E-07  0.230E-04    2.71      27.8  T
     SCC iter.                  ...        0 min,  0.239 sec
     gradient                   ...        0 min,  0.238 sec
 * total energy  :  -360.0595874 Eh     change       -0.2736679E-04 Eh
   gradient norm :     0.0012286 Eh/α   predicted    -0.1305593E-04 ( -52.29%)
   displ. norm   :     0.3194283 α      lambda       -0.2235730E-04
   maximum displ.:     0.1390955 α      in ANC's #4, #12, #10, ...

........................................................................
.............................. CYCLE  132 ..............................
........................................................................

 iter      E             dE          RMSdq      gap      omega  full diag
   1   -364.2769347 -0.364277E+03  0.120E-02    2.71       0.0  T
   2   -364.2769351 -0.379893E-06  0.711E-03    2.71       1.0  T
   3   -364.2769348  0.253204E-06  0.139E-03    2.71       4.6  T
   4   -364.2769351 -0.305894E-06  0.542E-04    2.71      11.8  T
   5   -364.2769352 -0.476749E-07  0.215E-04    2.71      29.8  T
     SCC iter.                  ...        0 min,  0.239 sec
     gradient                   ...        0 min,  0.238 sec
 * total energy  :  -360.0596153 Eh     change       -0.2789402E-04 Eh
   gradient norm :     0.0010731 Eh/α   predicted    -0.1168890E-04 ( -58.10%)
   displ. norm   :     0.4483722 α      lambda       -0.3598414E-04
   maximum displ.:     0.1997143 α      in ANC's #4, #12, #1, ...

........................................................................
.............................. CYCLE  133 ..............................
........................................................................

 iter      E             dE          RMSdq      gap      omega  full diag
   1   -364.2770369 -0.364277E+03  0.168E-02    2.71       0.0  T
   2   -364.2770376 -0.725299E-06  0.994E-03    2.71       1.0  T
   3   -364.2770369  0.746567E-06  0.223E-03    2.71       2.9  T
   4   -364.2770378 -0.880118E-06  0.748E-04    2.71       8.5  T
   5   -364.2770378 -0.867807E-07  0.297E-04    2.71      21.5  T
     SCC iter.                  ...        0 min,  0.239 sec
     gradient                   ...        0 min,  0.238 sec
 * total energy  :  -360.0596584 Eh     change       -0.4314323E-04 Eh
   gradient norm :     0.0011999 Eh/α   predicted    -0.1960177E-04 ( -54.57%)
   displ. norm   :     0.5405641 α      lambda       -0.4178267E-04
   maximum displ.:     0.2457190 α      in ANC's #4, #12, #1, ...

........................................................................
.............................. CYCLE  134 ..............................
........................................................................

 iter      E             dE          RMSdq      gap      omega  full diag
   1   -364.2765299 -0.364277E+03  0.206E-02    2.71       0.0  T
   2   -364.2765308 -0.888404E-06  0.122E-02    2.71       1.0  T
   3   -364.2765293  0.153472E-05  0.304E-03    2.71       2.1  T
   4   -364.2765311 -0.181665E-05  0.795E-04    2.71       8.0  T
   5   -364.2765312 -0.796074E-07  0.363E-04    2.71      17.6  T
   6   -364.2765312 -0.247479E-08  0.168E-04    2.71      38.0  T
     SCC iter.                  ...        0 min,  0.286 sec
     gradient                   ...        0 min,  0.240 sec
 * total energy  :  -360.0597054 Eh     change       -0.4697961E-04 Eh
   gradient norm :     0.0015082 Eh/α   predicted    -0.2360582E-04 ( -49.75%)
   displ. norm   :     0.4952041 α      lambda       -0.3436955E-04
   maximum displ.:     0.2306113 α      in ANC's #4, #1, #12, ...

........................................................................
.............................. CYCLE  135 ..............................
........................................................................

 iter      E             dE          RMSdq      gap      omega  full diag
   1   -364.2770463 -0.364277E+03  0.183E-02    2.72       0.0  T
   2   -364.2770470 -0.660501E-06  0.108E-02    2.72       1.0  T
   3   -364.2770462  0.801125E-06  0.229E-03    2.72       2.8  T
   4   -364.2770472 -0.991315E-06  0.700E-04    2.72       9.1  T
   5   -364.2770472 -0.610739E-07  0.324E-04    2.72      19.7  T
     SCC iter.                  ...        0 min,  0.239 sec
     gradient                   ...        0 min,  0.239 sec
 * total energy  :  -360.0597469 Eh     change       -0.4150779E-04 Eh
   gradient norm :     0.0013793 Eh/α   predicted    -0.1905927E-04 ( -54.08%)
   displ. norm   :     0.4863863 α      lambda       -0.3582126E-04
   maximum displ.:     0.2321884 α      in ANC's #4, #1, #8, ...

........................................................................
.............................. CYCLE  136 ..............................
........................................................................

 iter      E             dE          RMSdq      gap      omega  full diag
   1   -364.2777131 -0.364278E+03  0.181E-02    2.72       0.0  T
   2   -364.2777138 -0.702998E-06  0.107E-02    2.72       1.0  T
   3   -364.2777132  0.662941E-06  0.219E-03    2.72       2.9  T
   4   -364.2777140 -0.853015E-06  0.693E-04    2.72       9.2  T
   5   -364.2777141 -0.588793E-07  0.333E-04    2.72      19.2  T
     SCC iter.                  ...        0 min,  0.239 sec
     gradient                   ...        0 min,  0.239 sec
 * total energy  :  -360.0597922 Eh     change       -0.4532207E-04 Eh
   gradient norm :     0.0011434 Eh/α   predicted    -0.1979614E-04 ( -56.32%)
   displ. norm   :     0.5547486 α      lambda       -0.4352823E-04
   maximum displ.:     0.2703199 α      in ANC's #4, #1, #8, ...

........................................................................
.............................. CYCLE  137 ..............................
........................................................................

 iter      E             dE          RMSdq      gap      omega  full diag
   1   -364.2780946 -0.364278E+03  0.210E-02    2.72       0.0  T
   2   -364.2780957 -0.110944E-05  0.124E-02    2.72       1.0  T
   3   -364.2780950  0.714548E-06  0.242E-03    2.72       2.6  T
   4   -364.2780960 -0.961778E-06  0.827E-04    2.72       7.7  T
   5   -364.2780961 -0.864287E-07  0.394E-04    2.72      16.2  T
     SCC iter.                  ...        0 min,  0.239 sec
     gradient                   ...        0 min,  0.242 sec
 * total energy  :  -360.0598446 Eh     change       -0.5236657E-04 Eh
   gradient norm :     0.0012224 Eh/α   predicted    -0.2474249E-04 ( -52.75%)
   displ. norm   :     0.5519777 α      lambda       -0.3994095E-04
   maximum displ.:     0.2738638 α      in ANC's #4, #1, #8, ...

........................................................................
.............................. CYCLE  138 ..............................
........................................................................

 iter      E             dE          RMSdq      gap      omega  full diag
   1   -364.2782083 -0.364278E+03  0.209E-02    2.72       0.0  T
   2   -364.2782093 -0.961032E-06  0.123E-02    2.72       1.0  T
   3   -364.2782085  0.794805E-06  0.248E-03    2.72       2.6  T
   4   -364.2782095 -0.104682E-05  0.781E-04    2.72       8.2  T
   5   -364.2782096 -0.721801E-07  0.376E-04    2.72      17.0  T
   6   -364.2782096 -0.437842E-08  0.165E-04    2.72      38.7  T
     SCC iter.                  ...        0 min,  0.295 sec
     gradient                   ...        0 min,  0.240 sec
 * total energy  :  -360.0598905 Eh     change       -0.4595282E-04 Eh
   gradient norm :     0.0013223 Eh/α   predicted    -0.2267813E-04 ( -50.65%)
   displ. norm   :     0.4684334 α      lambda       -0.2941541E-04
   maximum displ.:     0.2373561 α      in ANC's #4, #1, #8, ...

........................................................................
.............................. CYCLE  139 ..............................
........................................................................

 iter      E             dE          RMSdq      gap      omega  full diag
   1   -364.2782433 -0.364278E+03  0.174E-02    2.72       0.0  T
   2   -364.2782440 -0.736965E-06  0.103E-02    2.72       1.0  T
   3   -364.2782435  0.540008E-06  0.204E-03    2.72       3.1  T
   4   -364.2782442 -0.699236E-06  0.682E-04    2.72       9.4  T
   5   -364.2782443 -0.614928E-07  0.314E-04    2.72      20.3  T
     SCC iter.                  ...        0 min,  0.240 sec
     gradient                   ...        0 min,  0.240 sec
 * total energy  :  -360.0599256 Eh     change       -0.3501541E-04 Eh
   gradient norm :     0.0010222 Eh/α   predicted    -0.1614652E-04 ( -53.89%)
   displ. norm   :     0.3764614 α      lambda       -0.2392105E-04
   maximum displ.:     0.1955095 α      in ANC's #4, #1, #8, ...

........................................................................
.............................. CYCLE  140 ..............................
........................................................................

 iter      E             dE          RMSdq      gap      omega  full diag
   1   -364.2785097 -0.364279E+03  0.135E-02    2.72       0.0  T
   2   -364.2785100 -0.392436E-06  0.801E-03    2.72       1.0  T
   3   -364.2785097  0.308382E-06  0.156E-03    2.72       4.1  T
   4   -364.2785102 -0.413075E-06  0.498E-04    2.72      12.8  T
   5   -364.2785102 -0.280394E-07  0.251E-04    2.72      25.5  T
     SCC iter.                  ...        0 min,  0.242 sec
     gradient                   ...        0 min,  0.242 sec
 * total energy  :  -360.0599558 Eh     change       -0.3029250E-04 Eh
   gradient norm :     0.0009094 Eh/α   predicted    -0.1271594E-04 ( -58.02%)
   displ. norm   :     0.3825470 α      lambda       -0.2760508E-04
   maximum displ.:     0.2021311 α      in ANC's #4, #1, #8, ...

........................................................................
.............................. CYCLE  141 ..............................
........................................................................

 iter      E             dE          RMSdq      gap      omega  full diag
   1   -364.2786454 -0.364279E+03  0.138E-02    2.72       0.0  T
   2   -364.2786457 -0.355878E-06  0.816E-03    2.72       1.0  T
   3   -364.2786452  0.525159E-06  0.184E-03    2.72       3.5  T
   4   -364.2786458 -0.634823E-06  0.506E-04    2.72      12.6  T
   5   -364.2786459 -0.309886E-07  0.240E-04    2.72      26.6  T
     SCC iter.                  ...        0 min,  0.240 sec
     gradient                   ...        0 min,  0.240 sec
 * total energy  :  -360.0599913 Eh     change       -0.3546163E-04 Eh
   gradient norm :     0.0010090 Eh/α   predicted    -0.1470535E-04 ( -58.53%)
   displ. norm   :     0.4649752 α      lambda       -0.3457396E-04
   maximum displ.:     0.2486344 α      in ANC's #4, #1, #8, ...

........................................................................
.............................. CYCLE  142 ..............................
........................................................................

 iter      E             dE          RMSdq      gap      omega  full diag
   1   -364.2784385 -0.364278E+03  0.170E-02    2.72       0.0  T
   2   -364.2784391 -0.548244E-06  0.101E-02    2.72       1.0  T
   3   -364.2784378  0.126549E-05  0.271E-03    2.72       2.4  T
   4   -364.2784393 -0.145918E-05  0.631E-04    2.72      10.1  T
   5   -364.2784393 -0.519022E-07  0.284E-04    2.72      22.5  T
   6   -364.2784393 -0.112419E-08  0.136E-04    2.72      47.0  T
     SCC iter.                  ...        0 min,  0.286 sec
     gradient                   ...        0 min,  0.240 sec
 * total energy  :  -360.0600351 Eh     change       -0.4377705E-04 Eh
   gradient norm :     0.0011865 Eh/α   predicted    -0.1895330E-04 ( -56.70%)
   displ. norm   :     0.5368975 α      lambda       -0.3866077E-04
   maximum displ.:     0.2904840 α      in ANC's #4, #1, #8, ...

........................................................................
.............................. CYCLE  143 ..............................
........................................................................

 iter      E             dE          RMSdq      gap      omega  full diag
   1   -364.2784837 -0.364278E+03  0.201E-02    2.72       0.0  T
   2   -364.2784842 -0.526177E-06  0.119E-02    2.72       1.0  T
   3   -364.2784817  0.246045E-05  0.363E-03    2.72       1.8  T
   4   -364.2784845 -0.280125E-05  0.594E-04    2.72      10.8  T
   5   -364.2784846 -0.304146E-07  0.306E-04    2.72      20.9  T
   6   -364.2784846 -0.164141E-08  0.131E-04    2.72      48.7  T
     SCC iter.                  ...        0 min,  0.286 sec
     gradient                   ...        0 min,  0.241 sec
 * total energy  :  -360.0600826 Eh     change       -0.4747988E-04 Eh
   gradient norm :     0.0016201 Eh/α   predicted    -0.2181065E-04 ( -54.06%)
   displ. norm   :     0.5490530 α      lambda       -0.3794661E-04
   maximum displ.:     0.3004614 α      in ANC's #4, #1, #8, ...

........................................................................
.............................. CYCLE  144 ..............................
........................................................................

 iter      E             dE          RMSdq      gap      omega  full diag
   1   -364.2784129 -0.364278E+03  0.206E-02    2.72       0.0  T
   2   -364.2784136 -0.750206E-06  0.122E-02    2.72       1.0  T
   3   -364.2784111  0.250922E-05  0.371E-03    2.72       1.7  T
   4   -364.2784139 -0.282813E-05  0.688E-04    2.72       9.3  T
   5   -364.2784140 -0.612214E-07  0.303E-04    2.72      21.1  T
   6   -364.2784140 -0.109230E-08  0.154E-04    2.72      41.5  T
     SCC iter.                  ...        0 min,  0.286 sec
     gradient                   ...        0 min,  0.241 sec
 * total energy  :  -360.0601296 Eh     change       -0.4701476E-04 Eh
   gradient norm :     0.0011979 Eh/α   predicted    -0.2152035E-04 ( -54.23%)
   displ. norm   :     0.5397950 α      lambda       -0.3717699E-04
   maximum displ.:     0.2993041 α      in ANC's #4, #1, #8, ...

........................................................................
.............................. CYCLE  145 ..............................
........................................................................

 iter      E             dE          RMSdq      gap      omega  full diag
   1   -364.2787356 -0.364279E+03  0.204E-02    2.72       0.0  T
   2   -364.2787361 -0.476913E-06  0.120E-02    2.72       1.0  T
   3   -364.2787341  0.196235E-05  0.326E-03    2.72       2.0  T
   4   -364.2787364 -0.224549E-05  0.558E-04    2.72      11.5  T
   5   -364.2787364 -0.272867E-07  0.289E-04    2.72      22.1  T
   6   -364.2787364 -0.132081E-08  0.132E-04    2.72      48.5  T
     SCC iter.                  ...        0 min,  0.285 sec
     gradient                   ...        0 min,  0.241 sec
 * total energy  :  -360.0601776 Eh     change       -0.4805851E-04 Eh
   gradient norm :     0.0010472 Eh/α   predicted    -0.2099714E-04 ( -56.31%)
   displ. norm   :     0.5880432 α      lambda       -0.4332503E-04
   maximum displ.:     0.3288141 α      in ANC's #4, #1, #8, ...

........................................................................
.............................. CYCLE  146 ..............................
........................................................................

 iter      E             dE          RMSdq      gap      omega  full diag
   1   -364.2788657 -0.364279E+03  0.223E-02    2.71       0.0  T
   2   -364.2788663 -0.537266E-06  0.132E-02    2.71       1.0  T
   3   -364.2788645  0.178742E-05  0.318E-03    2.71       2.0  T
   4   -364.2788666 -0.207774E-05  0.577E-04    2.71      11.1  T
   5   -364.2788666 -0.250769E-07  0.303E-04    2.71      21.1  T
   6   -364.2788666 -0.103802E-08  0.161E-04    2.71      39.7  T
     SCC iter.                  ...        0 min,  0.286 sec
     gradient                   ...        0 min,  0.241 sec
 * total energy  :  -360.0602339 Eh     change       -0.5629187E-04 Eh
   gradient norm :     0.0012098 Eh/α   predicted    -0.2499398E-04 ( -55.60%)
   displ. norm   :     0.6786116 α      lambda       -0.5285562E-04
   maximum displ.:     0.3815660 α      in ANC's #4, #1, #8, ...

........................................................................
.............................. CYCLE  147 ..............................
........................................................................

 iter      E             dE          RMSdq      gap      omega  full diag
   1   -364.2788994 -0.364279E+03  0.256E-02    2.71       0.0  T
   2   -364.2789001 -0.648833E-06  0.151E-02    2.71       1.0  T
   3   -364.2788988  0.126622E-05  0.283E-03    2.71       2.3  T
   4   -364.2789004 -0.157302E-05  0.675E-04    2.71       9.5  T
   5   -364.2789004 -0.340987E-07  0.363E-04    2.71      17.6  T
   6   -364.2789004 -0.309592E-08  0.158E-04    2.71      40.4  T
     SCC iter.                  ...        0 min,  0.286 sec
     gradient                   ...        0 min,  0.241 sec
 * total energy  :  -360.0603027 Eh     change       -0.6881571E-04 Eh
   gradient norm :     0.0015444 Eh/α   predicted    -0.3184117E-04 ( -53.73%)
   displ. norm   :     0.7639373 α      lambda       -0.6048030E-04
   maximum displ.:     0.4314328 α      in ANC's #4, #1, #8, ...

........................................................................
.............................. CYCLE  148 ..............................
........................................................................

 iter      E             dE          RMSdq      gap      omega  full diag
   1   -364.2788033 -0.364279E+03  0.285E-02    2.71       0.0  T
   2   -364.2788042 -0.903052E-06  0.168E-02    2.71       1.0  T
   3   -364.2788031  0.108323E-05  0.275E-03    2.71       2.3  T
   4   -364.2788046 -0.143386E-05  0.819E-04    2.71       7.8  T
   5   -364.2788046 -0.621047E-07  0.426E-04    2.71      15.0  T
   6   -364.2788046 -0.524130E-08  0.163E-04    2.71      39.1  T
     SCC iter.                  ...        0 min,  0.286 sec
     gradient                   ...        0 min,  0.241 sec
 * total energy  :  -360.0603827 Eh     change       -0.7997654E-04 Eh
   gradient norm :     0.0016887 Eh/α   predicted    -0.3808853E-04 ( -52.38%)
   displ. norm   :     0.8398669 α      lambda       -0.6900643E-04
   maximum displ.:     0.4760416 α      in ANC's #4, #1, #8, ...

........................................................................
.............................. CYCLE  149 ..............................
........................................................................

 iter      E             dE          RMSdq      gap      omega  full diag
   1   -364.2786129 -0.364279E+03  0.310E-02    2.71       0.0  T
   2   -364.2786143 -0.143974E-05  0.183E-02    2.71       1.0  T
   3   -364.2786130  0.128709E-05  0.306E-03    2.71       2.1  T
   4   -364.2786147 -0.170907E-05  0.102E-03    2.71       6.3  T
   5   -364.2786148 -0.123276E-06  0.511E-04    2.71      12.5  T
   6   -364.2786149 -0.102181E-07  0.188E-04    2.71      34.1  T
     SCC iter.                  ...        0 min,  0.286 sec
     gradient                   ...        0 min,  0.242 sec
 * total energy  :  -360.0604738 Eh     change       -0.9105289E-04 Eh
   gradient norm :     0.0016162 Eh/α   predicted    -0.4532290E-04 ( -50.22%)
   displ. norm   :     0.9011455 α      lambda       -0.7690812E-04
   maximum displ.:     0.5128573 α      in ANC's #4, #1, #8, ...

........................................................................
.............................. CYCLE  150 ..............................
........................................................................

 iter      E             dE          RMSdq      gap      omega  full diag
   1   -364.2786255 -0.364279E+03  0.328E-02    2.71       0.0  T
   2   -364.2786275 -0.200872E-05  0.194E-02    2.71       1.0  T
   3   -364.2786261  0.142078E-05  0.328E-03    2.71       1.9  T
   4   -364.2786280 -0.190639E-05  0.120E-03    2.71       5.3  T
   5   -364.2786282 -0.194712E-06  0.578E-04    2.71      11.1  T
   6   -364.2786282 -0.143099E-07  0.215E-04    2.71      29.8  T
     SCC iter.                  ...        0 min,  0.286 sec
     gradient                   ...        0 min,  0.240 sec
 * total energy  :  -360.0605732 Eh     change       -0.9942823E-04 Eh
   gradient norm :     0.0015457 Eh/α   predicted    -0.5233665E-04 ( -47.36%)
   displ. norm   :     0.9230936 α      lambda       -0.7805399E-04
   maximum displ.:     0.5277589 α      in ANC's #4, #1, #8, ...
 * RMSD in coord.:     0.7805555 α      energy gain  -0.1312815E-02 Eh

generating ANC from exact Hessian ...
Using Lindh-Hessian (1995)
 Shifting diagonal of input Hessian by    1.0049570538366682E-002
 Lowest  eigenvalues of input Hessian
    0.010000    0.010017    0.010025    0.010041    0.010048    0.000000
    0.000000    0.000000    0.000000    0.000000    0.000000    0.010053
    0.010065    0.010079    0.010112    0.010130    0.010162    0.010166
 Highest eigenvalues
    2.338310    2.339089    2.357852    2.377804    2.395648    2.396811


........................................................................
.............................. CYCLE  151 ..............................
........................................................................

 iter      E             dE          RMSdq      gap      omega  full diag
   1   -364.2786330 -0.364279E+03  0.331E-02    2.72       0.0  T
   2   -364.2786351 -0.209982E-05  0.196E-02    2.72       1.0  T
   3   -364.2786333  0.177946E-05  0.358E-03    2.72       1.8  T
   4   -364.2786357 -0.232899E-05  0.125E-03    2.72       5.1  T
   5   -364.2786359 -0.210427E-06  0.602E-04    2.72      10.6  T
   6   -364.2786359 -0.143996E-07  0.225E-04    2.72      28.4  T
     SCC iter.                  ...        0 min,  0.286 sec
     gradient                   ...        0 min,  0.243 sec
 * total energy  :  -360.0606731 Eh     change       -0.9986810E-04 Eh
   gradient norm :     0.0017152 Eh/α   predicted     0.0000000E+00 (-100.00%)
   displ. norm   :     0.0448515 α      lambda       -0.1820241E-04
   maximum displ.:     0.0135281 α      in ANC's #4, #21, #31, ...

........................................................................
.............................. CYCLE  152 ..............................
........................................................................

 iter      E             dE          RMSdq      gap      omega  full diag
   1   -364.2797955 -0.364280E+03  0.469E-03    2.72       0.0  T
   2   -364.2797956 -0.125109E-06  0.279E-03    2.72       2.3  T
   3   -364.2797955  0.839913E-07  0.804E-04    2.72       7.9  T
   4   -364.2797956 -0.978793E-07  0.272E-04    2.72      23.5  T
     SCC iter.                  ...        0 min,  0.193 sec
     gradient                   ...        0 min,  0.243 sec
 * total energy  :  -360.0606935 Eh     change       -0.2046845E-04 Eh
   gradient norm :     0.0008586 Eh/α   predicted    -0.9122819E-05 ( -55.43%)
   displ. norm   :     0.1414765 α      lambda       -0.3674030E-04
   maximum displ.:     0.0454543 α      in ANC's #4, #21, #31, ...

........................................................................
.............................. CYCLE  153 ..............................
........................................................................

 iter      E             dE          RMSdq      gap      omega  full diag
   1   -364.2809042 -0.364281E+03  0.113E-02    2.72       0.0  T
   2   -364.2809047 -0.529975E-06  0.669E-03    2.72       1.0  T
   3   -364.2809041  0.625592E-06  0.206E-03    2.72       3.1  T
   4   -364.2809048 -0.725061E-06  0.609E-04    2.72      10.5  T
   5   -364.2809049 -0.573315E-07  0.233E-04    2.72      27.4  T
     SCC iter.                  ...        0 min,  0.240 sec
     gradient                   ...        0 min,  0.243 sec
 * total energy  :  -360.0607285 Eh     change       -0.3494520E-04 Eh
   gradient norm :     0.0023635 Eh/α   predicted    -0.1853446E-04 ( -46.96%)
   displ. norm   :     0.0783110 α      lambda       -0.1871837E-04
   maximum displ.:     0.0297740 α      in ANC's #4, #21, #1, ...

........................................................................
.............................. CYCLE  154 ..............................
........................................................................

 iter      E             dE          RMSdq      gap      omega  full diag
   1   -364.2801858 -0.364280E+03  0.567E-03    2.72       0.0  T
   2   -364.2801859 -0.102575E-06  0.336E-03    2.72       1.9  T
   3   -364.2801858  0.104866E-06  0.871E-04    2.72       7.3  T
   4   -364.2801859 -0.128427E-06  0.248E-04    2.72      25.8  T
     SCC iter.                  ...        0 min,  0.192 sec
     gradient                   ...        0 min,  0.243 sec
 * total energy  :  -360.0607428 Eh     change       -0.1433920E-04 Eh
   gradient norm :     0.0014930 Eh/α   predicted    -0.9418592E-05 ( -34.32%)
   displ. norm   :     0.1789797 α      lambda       -0.2086809E-04
   maximum displ.:     0.0734018 α      in ANC's #4, #21, #1, ...

........................................................................
.............................. CYCLE  155 ..............................
........................................................................

 iter      E             dE          RMSdq      gap      omega  full diag
   1   -364.2788625 -0.364279E+03  0.116E-02    2.72       0.0  T
   2   -364.2788629 -0.398745E-06  0.685E-03    2.72       1.0  T
   3   -364.2788626  0.376538E-06  0.162E-03    2.72       3.9  T
   4   -364.2788630 -0.454459E-06  0.515E-04    2.72      12.4  T
   5   -364.2788630 -0.375745E-07  0.215E-04    2.72      29.7  T
     SCC iter.                  ...        0 min,  0.239 sec
     gradient                   ...        0 min,  0.242 sec
 * total energy  :  -360.0607609 Eh     change       -0.1802879E-04 Eh
   gradient norm :     0.0010874 Eh/α   predicted    -0.1060646E-04 ( -41.17%)
   displ. norm   :     0.0804409 α      lambda       -0.1076166E-04
   maximum displ.:     0.0376674 α      in ANC's #4, #1, #32, ...

........................................................................
.............................. CYCLE  156 ..............................
........................................................................

 iter      E             dE          RMSdq      gap      omega  full diag
   1   -364.2789478 -0.364279E+03  0.441E-03    2.72       0.0  T
   2   -364.2789478 -0.640869E-07  0.261E-03    2.72       2.5  T
   3   -364.2789477  0.974362E-07  0.766E-04    2.72       8.3  T
   4   -364.2789478 -0.109242E-06  0.211E-04    2.72      30.3  T
     SCC iter.                  ...        0 min,  0.192 sec
     gradient                   ...        0 min,  0.242 sec
 * total energy  :  -360.0607750 Eh     change       -0.1410212E-04 Eh
   gradient norm :     0.0011443 Eh/α   predicted    -0.5400387E-05 ( -61.71%)
   displ. norm   :     0.2515640 α      lambda       -0.3272036E-04
   maximum displ.:     0.1161728 α      in ANC's #4, #1, #2, ...

........................................................................
.............................. CYCLE  157 ..............................
........................................................................

 iter      E             dE          RMSdq      gap      omega  full diag
   1   -364.2789430 -0.364279E+03  0.134E-02    2.72       0.0  T
   2   -364.2789434 -0.473015E-06  0.795E-03    2.72       1.0  T
   3   -364.2789420  0.142423E-05  0.280E-03    2.72       2.3  T
   4   -364.2789436 -0.159549E-05  0.548E-04    2.72      11.6  T
   5   -364.2789437 -0.453118E-07  0.219E-04    2.72      29.2  T
   6   -364.2789437 -0.835598E-09  0.113E-04    2.72      56.4  T
     SCC iter.                  ...        0 min,  0.291 sec
     gradient                   ...        0 min,  0.243 sec
 * total energy  :  -360.0608086 Eh     change       -0.3366329E-04 Eh
   gradient norm :     0.0015457 Eh/α   predicted    -0.1682093E-04 ( -50.03%)
   displ. norm   :     0.2351837 α      lambda       -0.1906343E-04
   maximum displ.:     0.1130501 α      in ANC's #4, #1, #2, ...

........................................................................
.............................. CYCLE  158 ..............................
........................................................................

 iter      E             dE          RMSdq      gap      omega  full diag
   1   -364.2790759 -0.364279E+03  0.117E-02    2.72       0.0  T
   2   -364.2790762 -0.347011E-06  0.692E-03    2.72       1.0  T
   3   -364.2790753  0.942614E-06  0.227E-03    2.72       2.8  T
   4   -364.2790763 -0.105487E-05  0.468E-04    2.72      13.6  T
   5   -364.2790764 -0.328221E-07  0.187E-04    2.72      34.2  T
   6   -364.2790764 -0.595321E-09  0.984E-05    2.72      64.9  T
     SCC iter.                  ...        0 min,  0.287 sec
     gradient                   ...        0 min,  0.243 sec
 * total energy  :  -360.0608282 Eh     change       -0.1957701E-04 Eh
   gradient norm :     0.0013374 Eh/α   predicted    -0.9766805E-05 ( -50.11%)
   displ. norm   :     0.2249614 α      lambda       -0.1712939E-04
   maximum displ.:     0.1115943 α      in ANC's #4, #1, #2, ...

........................................................................
.............................. CYCLE  159 ..............................
........................................................................

 iter      E             dE          RMSdq      gap      omega  full diag
   1   -364.2794532 -0.364279E+03  0.106E-02    2.73       0.0  T
   2   -364.2794535 -0.256188E-06  0.628E-03    2.73       1.0  T
   3   -364.2794528  0.670878E-06  0.195E-03    2.73       3.3  T
   4   -364.2794536 -0.760568E-06  0.412E-04    2.73      15.5  T
   5   -364.2794536 -0.230170E-07  0.179E-04    2.73      35.7  T
     SCC iter.                  ...        0 min,  0.240 sec
     gradient                   ...        0 min,  0.243 sec
 * total energy  :  -360.0608485 Eh     change       -0.2030020E-04 Eh
   gradient norm :     0.0009221 Eh/α   predicted    -0.8762074E-05 ( -56.84%)
   displ. norm   :     0.2627078 α      lambda       -0.2216599E-04
   maximum displ.:     0.1345724 α      in ANC's #4, #1, #2, ...

........................................................................
.............................. CYCLE  160 ..............................
........................................................................

 iter      E             dE          RMSdq      gap      omega  full diag
   1   -364.2798272 -0.364280E+03  0.118E-02    2.73       0.0  T
   2   -364.2798275 -0.297784E-06  0.702E-03    2.73       1.0  T
   3   -364.2798267  0.732762E-06  0.210E-03    2.73       3.0  T
   4   -364.2798276 -0.852610E-06  0.438E-04    2.73      14.6  T
   5   -364.2798276 -0.211472E-07  0.210E-04    2.73      30.4  T
     SCC iter.                  ...        0 min,  0.239 sec
     gradient                   ...        0 min,  0.243 sec
 * total energy  :  -360.0608746 Eh     change       -0.2605531E-04 Eh
   gradient norm :     0.0008801 Eh/α   predicted    -0.1142578E-04 ( -56.15%)
   displ. norm   :     0.2665298 α      lambda       -0.2032957E-04
   maximum displ.:     0.1416189 α      in ANC's #4, #1, #2, ...

........................................................................
.............................. CYCLE  161 ..............................
........................................................................

 iter      E             dE          RMSdq      gap      omega  full diag
   1   -364.2796573 -0.364280E+03  0.116E-02    2.73       0.0  T
   2   -364.2796576 -0.286077E-06  0.692E-03    2.73       1.0  T
   3   -364.2796571  0.485288E-06  0.176E-03    2.73       3.6  T
   4   -364.2796577 -0.587026E-06  0.435E-04    2.73      14.7  T
   5   -364.2796577 -0.208103E-07  0.206E-04    2.73      31.0  T
     SCC iter.                  ...        0 min,  0.240 sec
     gradient                   ...        0 min,  0.244 sec
 * total energy  :  -360.0608961 Eh     change       -0.2154508E-04 Eh
   gradient norm :     0.0011515 Eh/α   predicted    -0.1048953E-04 ( -51.31%)
   displ. norm   :     0.1935275 α      lambda       -0.1321358E-04
   maximum displ.:     0.1075953 α      in ANC's #4, #1, #2, ...

........................................................................
.............................. CYCLE  162 ..............................
........................................................................

 iter      E             dE          RMSdq      gap      omega  full diag
   1   -364.2795180 -0.364280E+03  0.791E-03    2.73       0.0  T
   2   -364.2795182 -0.182555E-06  0.470E-03    2.73       1.4  T
   3   -364.2795180  0.192390E-06  0.116E-03    2.73       5.5  T
   4   -364.2795182 -0.230449E-06  0.350E-04    2.73      18.3  T
   5   -364.2795183 -0.172494E-07  0.138E-04    2.73      46.2  T
     SCC iter.                  ...        0 min,  0.247 sec
     gradient                   ...        0 min,  0.243 sec
 * total energy  :  -360.0609104 Eh     change       -0.1430280E-04 Eh
   gradient norm :     0.0009580 Eh/α   predicted    -0.6720990E-05 ( -53.01%)
   displ. norm   :     0.1481335 α      lambda       -0.1153876E-04
   maximum displ.:     0.0854514 α      in ANC's #4, #1, #2, ...

........................................................................
.............................. CYCLE  163 ..............................
........................................................................

 iter      E             dE          RMSdq      gap      omega  full diag
   1   -364.2794936 -0.364279E+03  0.579E-03    2.73       0.0  T
   2   -364.2794937 -0.129844E-06  0.342E-03    2.73       1.9  T
   3   -364.2794936  0.939020E-07  0.836E-04    2.73       7.6  T
   4   -364.2794937 -0.109244E-06  0.298E-04    2.73      21.4  T
     SCC iter.                  ...        0 min,  0.193 sec
     gradient                   ...        0 min,  0.243 sec
 * total energy  :  -360.0609244 Eh     change       -0.1401319E-04 Eh
   gradient norm :     0.0006863 Eh/α   predicted    -0.5826278E-05 ( -58.42%)
   displ. norm   :     0.1835959 α      lambda       -0.1612835E-04
   maximum displ.:     0.1060000 α      in ANC's #4, #1, #2, ...

........................................................................
.............................. CYCLE  164 ..............................
........................................................................

 iter      E             dE          RMSdq      gap      omega  full diag
   1   -364.2793446 -0.364279E+03  0.743E-03    2.73       0.0  T
   2   -364.2793448 -0.220320E-06  0.439E-03    2.73       1.5  T
   3   -364.2793447  0.156613E-06  0.108E-03    2.73       5.9  T
   4   -364.2793449 -0.181971E-06  0.400E-04    2.73      16.0  T
   5   -364.2793449 -0.288146E-07  0.145E-04    2.73      44.0  T
     SCC iter.                  ...        0 min,  0.239 sec
     gradient                   ...        0 min,  0.243 sec
 * total energy  :  -360.0609432 Eh     change       -0.1880567E-04 Eh
   gradient norm :     0.0008478 Eh/α   predicted    -0.8188037E-05 ( -56.46%)
   displ. norm   :     0.2265674 α      lambda       -0.1787533E-04
   maximum displ.:     0.1306000 α      in ANC's #4, #1, #2, ...

........................................................................
.............................. CYCLE  165 ..............................
........................................................................

 iter      E             dE          RMSdq      gap      omega  full diag
   1   -364.2790424 -0.364279E+03  0.892E-03    2.73       0.0  T
   2   -364.2790426 -0.203070E-06  0.529E-03    2.73       1.2  T
   3   -364.2790425  0.182762E-06  0.114E-03    2.73       5.6  T
   4   -364.2790427 -0.228760E-06  0.387E-04    2.73      16.5  T
   5   -364.2790427 -0.218695E-07  0.169E-04    2.73      37.8  T
     SCC iter.                  ...        0 min,  0.239 sec
     gradient                   ...        0 min,  0.243 sec
 * total energy  :  -360.0609638 Eh     change       -0.2055539E-04 Eh
   gradient norm :     0.0011992 Eh/α   predicted    -0.9143069E-05 ( -55.52%)
   displ. norm   :     0.2492083 α      lambda       -0.1809319E-04
   maximum displ.:     0.1442497 α      in ANC's #4, #1, #2, ...

........................................................................
.............................. CYCLE  166 ..............................
........................................................................

 iter      E             dE          RMSdq      gap      omega  full diag
   1   -364.2790703 -0.364279E+03  0.971E-03    2.73       0.0  T
   2   -364.2790704 -0.164808E-06  0.576E-03    2.73       1.1  T
   3   -364.2790702  0.249178E-06  0.126E-03    2.73       5.1  T
   4   -364.2790705 -0.314105E-06  0.343E-04    2.73      18.6  T
   5   -364.2790705 -0.116177E-07  0.172E-04    2.73      37.2  T
     SCC iter.                  ...        0 min,  0.239 sec
     gradient                   ...        0 min,  0.244 sec
 * total energy  :  -360.0609859 Eh     change       -0.2210749E-04 Eh
   gradient norm :     0.0012155 Eh/α   predicted    -0.9297925E-05 ( -57.94%)
   displ. norm   :     0.3091483 α      lambda       -0.2297491E-04
   maximum displ.:     0.1795030 α      in ANC's #4, #1, #2, ...

........................................................................
.............................. CYCLE  167 ..............................
........................................................................

 iter      E             dE          RMSdq      gap      omega  full diag
   1   -364.2791503 -0.364279E+03  0.119E-02    2.73       0.0  T
   2   -364.2791506 -0.247353E-06  0.706E-03    2.73       1.0  T
   3   -364.2791502  0.371573E-06  0.154E-03    2.73       4.2  T
   4   -364.2791507 -0.464110E-06  0.413E-04    2.73      15.5  T
   5   -364.2791507 -0.173978E-07  0.203E-04    2.73      31.4  T
     SCC iter.                  ...        0 min,  0.240 sec
     gradient                   ...        0 min,  0.244 sec
 * total energy  :  -360.0610137 Eh     change       -0.2779349E-04 Eh
   gradient norm :     0.0009780 Eh/α   predicted    -0.1198048E-04 ( -56.89%)
   displ. norm   :     0.3680726 α      lambda       -0.2594667E-04
   maximum displ.:     0.2157220 α      in ANC's #4, #1, #2, ...

........................................................................
.............................. CYCLE  168 ..............................
........................................................................

 iter      E             dE          RMSdq      gap      omega  full diag
   1   -364.2791955 -0.364279E+03  0.128E-02    2.73       0.0  T
   2   -364.2791959 -0.369022E-06  0.758E-03    2.73       1.0  T
   3   -364.2791955  0.357454E-06  0.158E-03    2.73       4.0  T
   4   -364.2791959 -0.444699E-06  0.525E-04    2.73      12.2  T
   5   -364.2791960 -0.387764E-07  0.228E-04    2.73      28.1  T
     SCC iter.                  ...        0 min,  0.239 sec
     gradient                   ...        0 min,  0.244 sec
 * total energy  :  -360.0610439 Eh     change       -0.3018989E-04 Eh
   gradient norm :     0.0008891 Eh/α   predicted    -0.1375671E-04 ( -54.43%)
   displ. norm   :     0.3668598 α      lambda       -0.2269329E-04
   maximum displ.:     0.2170856 α      in ANC's #4, #2, #1, ...

........................................................................
.............................. CYCLE  169 ..............................
........................................................................

 iter      E             dE          RMSdq      gap      omega  full diag
   1   -364.2793384 -0.364279E+03  0.120E-02    2.73       0.0  T
   2   -364.2793388 -0.331309E-06  0.709E-03    2.73       1.0  T
   3   -364.2793384  0.401195E-06  0.163E-03    2.73       3.9  T
   4   -364.2793389 -0.481515E-06  0.499E-04    2.73      12.8  T
   5   -364.2793389 -0.364864E-07  0.210E-04    2.73      30.4  T
     SCC iter.                  ...        0 min,  0.239 sec
     gradient                   ...        0 min,  0.244 sec
 * total energy  :  -360.0610710 Eh     change       -0.2710958E-04 Eh
   gradient norm :     0.0009583 Eh/α   predicted    -0.1203069E-04 ( -55.62%)
   displ. norm   :     0.3608484 α      lambda       -0.2213045E-04
   maximum displ.:     0.2144743 α      in ANC's #4, #2, #1, ...

........................................................................
.............................. CYCLE  170 ..............................
........................................................................

 iter      E             dE          RMSdq      gap      omega  full diag
   1   -364.2794886 -0.364279E+03  0.106E-02    2.73       0.0  T
   2   -364.2794888 -0.254627E-06  0.626E-03    2.73       1.0  T
   3   -364.2794884  0.398586E-06  0.158E-03    2.73       4.0  T
   4   -364.2794889 -0.472511E-06  0.437E-04    2.73      14.6  T
   5   -364.2794889 -0.262472E-07  0.191E-04    2.73      33.5  T
     SCC iter.                  ...        0 min,  0.239 sec
     gradient                   ...        0 min,  0.244 sec
 * total energy  :  -360.0610984 Eh     change       -0.2739090E-04 Eh
   gradient norm :     0.0010275 Eh/α   predicted    -0.1170723E-04 ( -57.26%)
   displ. norm   :     0.3888557 α      lambda       -0.2437926E-04
   maximum displ.:     0.2314273 α      in ANC's #4, #2, #1, ...

........................................................................
.............................. CYCLE  171 ..............................
........................................................................

 iter      E             dE          RMSdq      gap      omega  full diag
   1   -364.2793383 -0.364279E+03  0.109E-02    2.73       0.0  T
   2   -364.2793385 -0.260783E-06  0.647E-03    2.73       1.0  T
   3   -364.2793381  0.388428E-06  0.157E-03    2.73       4.1  T
   4   -364.2793386 -0.462814E-06  0.453E-04    2.73      14.1  T
   5   -364.2793386 -0.279647E-07  0.200E-04    2.73      31.9  T
     SCC iter.                  ...        0 min,  0.239 sec
     gradient                   ...        0 min,  0.244 sec
 * total energy  :  -360.0611288 Eh     change       -0.3046612E-04 Eh
   gradient norm :     0.0009120 Eh/α   predicted    -0.1301092E-04 ( -57.29%)
   displ. norm   :     0.4087281 α      lambda       -0.2421628E-04
   maximum displ.:     0.2444995 α      in ANC's #4, #2, #1, ...

........................................................................
.............................. CYCLE  172 ..............................
........................................................................

 iter      E             dE          RMSdq      gap      omega  full diag
   1   -364.2791973 -0.364279E+03  0.115E-02    2.73       0.0  T
   2   -364.2791976 -0.272717E-06  0.680E-03    2.73       1.0  T
   3   -364.2791971  0.424549E-06  0.163E-03    2.73       3.9  T
   4   -364.2791977 -0.507878E-06  0.452E-04    2.73      14.1  T
   5   -364.2791977 -0.258176E-07  0.207E-04    2.73      30.8  T
     SCC iter.                  ...        0 min,  0.240 sec
     gradient                   ...        0 min,  0.244 sec
 * total energy  :  -360.0611585 Eh     change       -0.2968446E-04 Eh
   gradient norm :     0.0007632 Eh/α   predicted    -0.1300923E-04 ( -56.17%)
   displ. norm   :     0.3837177 α      lambda       -0.2074722E-04
   maximum displ.:     0.2313414 α      in ANC's #4, #2, #1, ...

........................................................................
.............................. CYCLE  173 ..............................
........................................................................

 iter      E             dE          RMSdq      gap      omega  full diag
   1   -364.2790614 -0.364279E+03  0.106E-02    2.73       0.0  T
   2   -364.2790616 -0.237143E-06  0.626E-03    2.73       1.0  T
   3   -364.2790613  0.298635E-06  0.139E-03    2.73       4.6  T
   4   -364.2790617 -0.357433E-06  0.430E-04    2.73      14.8  T
   5   -364.2790617 -0.256950E-07  0.185E-04    2.73      34.5  T
     SCC iter.                  ...        0 min,  0.239 sec
     gradient                   ...        0 min,  0.245 sec
 * total energy  :  -360.0611838 Eh     change       -0.2527937E-04 Eh
   gradient norm :     0.0007475 Eh/α   predicted    -0.1105477E-04 ( -56.27%)
   displ. norm   :     0.3488500 α      lambda       -0.1888343E-04
   maximum displ.:     0.2117304 α      in ANC's #4, #2, #1, ...

........................................................................
.............................. CYCLE  174 ..............................
........................................................................

 iter      E             dE          RMSdq      gap      omega  full diag
   1   -364.2790255 -0.364279E+03  0.985E-03    2.73       0.0  T
   2   -364.2790257 -0.178316E-06  0.582E-03    2.73       1.1  T
   3   -364.2790254  0.270728E-06  0.130E-03    2.73       4.9  T
   4   -364.2790257 -0.319755E-06  0.374E-04    2.73      17.1  T
   5   -364.2790257 -0.191057E-07  0.162E-04    2.73      39.3  T
     SCC iter.                  ...        0 min,  0.239 sec
     gradient                   ...        0 min,  0.244 sec
 * total energy  :  -360.0612078 Eh     change       -0.2397740E-04 Eh
   gradient norm :     0.0007490 Eh/α   predicted    -0.9953913E-05 ( -58.49%)
   displ. norm   :     0.3712826 α      lambda       -0.2129203E-04
   maximum displ.:     0.2260304 α      in ANC's #4, #2, #1, ...

........................................................................
.............................. CYCLE  175 ..............................
........................................................................

 iter      E             dE          RMSdq      gap      omega  full diag
   1   -364.2791299 -0.364279E+03  0.108E-02    2.73       0.0  T
   2   -364.2791301 -0.167029E-06  0.637E-03    2.73       1.0  T
   3   -364.2791297  0.333533E-06  0.140E-03    2.73       4.6  T
   4   -364.2791301 -0.393178E-06  0.356E-04    2.73      17.9  T
   5   -364.2791301 -0.154489E-07  0.165E-04    2.73      38.7  T
     SCC iter.                  ...        0 min,  0.239 sec
     gradient                   ...        0 min,  0.246 sec
 * total energy  :  -360.0612362 Eh     change       -0.2839228E-04 Eh
   gradient norm :     0.0008169 Eh/α   predicted    -0.1130097E-04 ( -60.20%)
   displ. norm   :     0.4883992 α      lambda       -0.2984115E-04
   maximum displ.:     0.2969615 α      in ANC's #4, #2, #1, ...

........................................................................
.............................. CYCLE  176 ..............................
........................................................................

 iter      E             dE          RMSdq      gap      omega  full diag
   1   -364.2791054 -0.364279E+03  0.148E-02    2.73       0.0  T
   2   -364.2791057 -0.245184E-06  0.877E-03    2.73       1.0  T
   3   -364.2791047  0.975146E-06  0.228E-03    2.73       2.8  T
   4   -364.2791058 -0.112307E-05  0.411E-04    2.73      15.5  T
   5   -364.2791058 -0.133335E-07  0.213E-04    2.73      29.9  T
   6   -364.2791058 -0.979583E-09  0.766E-05    2.73      83.4  T
     SCC iter.                  ...        0 min,  0.291 sec
     gradient                   ...        0 min,  0.245 sec
 * total energy  :  -360.0612755 Eh     change       -0.3937295E-04 Eh
   gradient norm :     0.0009146 Eh/α   predicted    -0.1650571E-04 ( -58.08%)
   displ. norm   :     0.6350017 α      lambda       -0.3808893E-04
   maximum displ.:     0.3856987 α      in ANC's #4, #2, #1, ...

........................................................................
.............................. CYCLE  177 ..............................
........................................................................

 iter      E             dE          RMSdq      gap      omega  full diag
   1   -364.2790613 -0.364279E+03  0.196E-02    2.73       0.0  T
   2   -364.2790618 -0.440503E-06  0.116E-02    2.73       1.0  T
   3   -364.2790603  0.146412E-05  0.282E-03    2.73       2.3  T
   4   -364.2790620 -0.169526E-05  0.549E-04    2.73      11.6  T
   5   -364.2790620 -0.260437E-07  0.278E-04    2.73      23.0  T
   6   -364.2790620 -0.179870E-08  0.107E-04    2.73      59.8  T
     SCC iter.                  ...        0 min,  0.287 sec
     gradient                   ...        0 min,  0.245 sec
 * total energy  :  -360.0613243 Eh     change       -0.4876138E-04 Eh
   gradient norm :     0.0009948 Eh/α   predicted    -0.2246115E-04 ( -53.94%)
   displ. norm   :     0.7033116 α      lambda       -0.3928303E-04
   maximum displ.:     0.4273396 α      in ANC's #4, #2, #1, ...

........................................................................
.............................. CYCLE  178 ..............................
........................................................................

 iter      E             dE          RMSdq      gap      omega  full diag
   1   -364.2790882 -0.364279E+03  0.216E-02    2.73       0.0  T
   2   -364.2790888 -0.547315E-06  0.128E-02    2.73       1.0  T
   3   -364.2790868  0.192512E-05  0.322E-03    2.73       2.0  T
   4   -364.2790891 -0.221406E-05  0.603E-04    2.73      10.6  T
   5   -364.2790891 -0.327710E-07  0.302E-04    2.73      21.2  T
   6   -364.2790891 -0.195041E-08  0.121E-04    2.73      52.7  T
     SCC iter.                  ...        0 min,  0.286 sec
     gradient                   ...        0 min,  0.244 sec
 * total energy  :  -360.0613746 Eh     change       -0.5033257E-04 Eh
   gradient norm :     0.0009124 Eh/α   predicted    -0.2396120E-04 ( -52.39%)
   displ. norm   :     0.7167978 α      lambda       -0.3910095E-04
   maximum displ.:     0.4355996 α      in ANC's #4, #2, #1, ...

........................................................................
.............................. CYCLE  179 ..............................
........................................................................

 iter      E             dE          RMSdq      gap      omega  full diag
   1   -364.2792037 -0.364279E+03  0.215E-02    2.73       0.0  T
   2   -364.2792043 -0.582719E-06  0.127E-02    2.72       1.0  T
   3   -364.2792020  0.226429E-05  0.349E-03    2.73       1.8  T
   4   -364.2792046 -0.258381E-05  0.617E-04    2.73      10.4  T
   5   -364.2792046 -0.352614E-07  0.306E-04    2.73      20.9  T
   6   -364.2792046 -0.173463E-08  0.131E-04    2.73      48.8  T
     SCC iter.                  ...        0 min,  0.307 sec
     gradient                   ...        0 min,  0.251 sec
 * total energy  :  -360.0614261 Eh     change       -0.5142950E-04 Eh
   gradient norm :     0.0009027 Eh/α   predicted    -0.2401646E-04 ( -53.30%)
   displ. norm   :     0.7554939 α      lambda       -0.4371124E-04
   maximum displ.:     0.4587918 α      in ANC's #4, #2, #1, ...

........................................................................
.............................. CYCLE  180 ..............................
........................................................................

 iter      E             dE          RMSdq      gap      omega  full diag
   1   -364.2795088 -0.364280E+03  0.221E-02    2.73       0.0  T
   2   -364.2795094 -0.638955E-06  0.131E-02    2.73       1.0  T
   3   -364.2795072  0.220537E-05  0.348E-03    2.73       1.8  T
   4   -364.2795097 -0.252675E-05  0.646E-04    2.73       9.9  T
   5   -364.2795098 -0.411785E-07  0.318E-04    2.73      20.1  T
   6   -364.2795098 -0.188896E-08  0.146E-04    2.73      43.7  T
     SCC iter.                  ...        0 min,  0.288 sec
     gradient                   ...        0 min,  0.245 sec
 * total energy  :  -360.0614848 Eh     change       -0.5870527E-04 Eh
   gradient norm :     0.0009524 Eh/α   predicted    -0.2740286E-04 ( -53.32%)
   displ. norm   :     0.8367830 α      lambda       -0.5265977E-04
   maximum displ.:     0.5072748 α      in ANC's #4, #2, #1, ...

........................................................................
.............................. CYCLE  181 ..............................
........................................................................

 iter      E             dE          RMSdq      gap      omega  full diag
   1   -364.2795989 -0.364280E+03  0.242E-02    2.73       0.0  T
   2   -364.2795996 -0.747684E-06  0.143E-02    2.73       1.0  T
   3   -364.2795964  0.324180E-05  0.421E-03    2.73       1.5  T
   4   -364.2796001 -0.369523E-05  0.676E-04    2.73       9.5  T
   5   -364.2796001 -0.370629E-07  0.351E-04    2.73      18.2  T
   6   -364.2796001 -0.231165E-08  0.176E-04    2.73      36.3  T
     SCC iter.                  ...        0 min,  0.287 sec
     gradient                   ...        0 min,  0.245 sec
 * total energy  :  -360.0615558 Eh     change       -0.7099922E-04 Eh
   gradient norm :     0.0010995 Eh/α   predicted    -0.3452954E-04 ( -51.37%)
   displ. norm   :     0.9172303 α      lambda       -0.6136388E-04
   maximum displ.:     0.5544988 α      in ANC's #4, #2, #1, ...

........................................................................
.............................. CYCLE  182 ..............................
........................................................................

 iter      E             dE          RMSdq      gap      omega  full diag
   1   -364.2796600 -0.364280E+03  0.263E-02    2.73       0.0  T
   2   -364.2796609 -0.912451E-06  0.156E-02    2.73       1.0  T
   3   -364.2796573  0.356849E-05  0.447E-03    2.73       1.4  T
   4   -364.2796614 -0.409130E-05  0.748E-04    2.73       8.5  T
   5   -364.2796615 -0.478458E-07  0.397E-04    2.73      16.1  T
   6   -364.2796615 -0.303629E-08  0.206E-04    2.73      31.0  T
     SCC iter.                  ...        0 min,  0.287 sec
     gradient                   ...        0 min,  0.247 sec
 * total energy  :  -360.0616375 Eh     change       -0.8177665E-04 Eh
   gradient norm :     0.0012782 Eh/α   predicted    -0.4216155E-04 ( -48.44%)
   displ. norm   :     0.9622828 α      lambda       -0.6619369E-04
   maximum displ.:     0.5798300 α      in ANC's #4, #2, #1, ...

........................................................................
.............................. CYCLE  183 ..............................
........................................................................

 iter      E             dE          RMSdq      gap      omega  full diag
   1   -364.2796233 -0.364280E+03  0.276E-02    2.73       0.0  T
   2   -364.2796242 -0.889801E-06  0.163E-02    2.73       1.0  T
   3   -364.2796211  0.314879E-05  0.422E-03    2.73       1.5  T
   4   -364.2796248 -0.366516E-05  0.739E-04    2.73       8.6  T
   5   -364.2796248 -0.360328E-07  0.407E-04    2.73      15.7  T
   6   -364.2796248 -0.375280E-08  0.209E-04    2.73      30.6  T
     SCC iter.                  ...        0 min,  0.287 sec
     gradient                   ...        0 min,  0.245 sec
 * total energy  :  -360.0617244 Eh     change       -0.8688440E-04 Eh
   gradient norm :     0.0012588 Eh/α   predicted    -0.4672372E-04 ( -46.22%)
   displ. norm   :     0.9747786 α      lambda       -0.6777666E-04
   maximum displ.:     0.5856471 α      in ANC's #4, #2, #1, ...
 * RMSD in coord.:     0.7647169 α      energy gain  -0.1151223E-02 Eh

generating ANC from exact Hessian ...
Using Lindh-Hessian (1995)
 Shifting diagonal of input Hessian by    1.0050643845796759E-002
 Lowest  eigenvalues of input Hessian
    0.010000    0.010018    0.010026    0.010043    0.010050    0.000000
    0.000000    0.000000    0.000000    0.000000    0.000000    0.010053
    0.010064    0.010079    0.010111    0.010131    0.010159    0.010163
 Highest eigenvalues
    2.336056    2.340105    2.358067    2.379872    2.394359    2.396782


........................................................................
.............................. CYCLE  184 ..............................
........................................................................

 iter      E             dE          RMSdq      gap      omega  full diag
   1   -364.2797283 -0.364280E+03  0.283E-02    2.73       0.0  T
   2   -364.2797294 -0.102614E-05  0.167E-02    2.73       1.0  T
   3   -364.2797266  0.275190E-05  0.404E-03    2.73       1.6  T
   4   -364.2797298 -0.323968E-05  0.798E-04    2.73       8.0  T
   5   -364.2797299 -0.575619E-07  0.430E-04    2.73      14.8  T
   6   -364.2797299 -0.320614E-08  0.220E-04    2.73      29.1  T
     SCC iter.                  ...        0 min,  0.286 sec
     gradient                   ...        0 min,  0.246 sec
 * total energy  :  -360.0618132 Eh     change       -0.8880664E-04 Eh
   gradient norm :     0.0013355 Eh/α   predicted     0.0000000E+00 (-100.00%)
   displ. norm   :     0.0447530 α      lambda       -0.1706546E-04
   maximum displ.:     0.0125113 α      in ANC's #11, #99, #4, ...

........................................................................
.............................. CYCLE  185 ..............................
........................................................................

 iter      E             dE          RMSdq      gap      omega  full diag
   1   -364.2803852 -0.364280E+03  0.438E-03    2.73       0.0  T
   2   -364.2803853 -0.972992E-07  0.261E-03    2.73       2.5  T
   3   -364.2803851  0.180088E-06  0.109E-03    2.73       5.8  T
   4   -364.2803853 -0.203445E-06  0.266E-04    2.73      24.0  T
   5   -364.2803853 -0.121053E-07  0.836E-05    2.73      76.5  T
     SCC iter.                  ...        0 min,  0.239 sec
     gradient                   ...        0 min,  0.248 sec
 * total energy  :  -360.0618332 Eh     change       -0.1997785E-04 Eh
   gradient norm :     0.0008448 Eh/α   predicted    -0.8546992E-05 ( -57.22%)
   displ. norm   :     0.1712114 α      lambda       -0.4511130E-04
   maximum displ.:     0.0497455 α      in ANC's #11, #4, #99, ...

........................................................................
.............................. CYCLE  186 ..............................
........................................................................

 iter      E             dE          RMSdq      gap      omega  full diag
   1   -364.2812481 -0.364281E+03  0.140E-02    2.73       0.0  T
   2   -364.2812488 -0.693893E-06  0.834E-03    2.73       1.0  T
   3   -364.2812467  0.205918E-05  0.347E-03    2.73       1.8  T
   4   -364.2812490 -0.232113E-05  0.696E-04    2.73       9.2  T
   5   -364.2812491 -0.737861E-07  0.257E-04    2.73      24.9  T
   6   -364.2812491 -0.132576E-08  0.131E-04    2.73      48.8  T
     SCC iter.                  ...        0 min,  0.287 sec
     gradient                   ...        0 min,  0.247 sec
 * total energy  :  -360.0618729 Eh     change       -0.3967972E-04 Eh
   gradient norm :     0.0019442 Eh/α   predicted    -0.2285854E-04 ( -42.39%)
   displ. norm   :     0.0931438 α      lambda       -0.1383531E-04
   maximum displ.:     0.0316324 α      in ANC's #11, #4, #2, ...

........................................................................
.............................. CYCLE  187 ..............................
........................................................................

 iter      E             dE          RMSdq      gap      omega  full diag
   1   -364.2806605 -0.364281E+03  0.710E-03    2.73       0.0  T
   2   -364.2806607 -0.157048E-06  0.421E-03    2.73       1.5  T
   3   -364.2806603  0.348652E-06  0.142E-03    2.73       4.5  T
   4   -364.2806607 -0.392957E-06  0.327E-04    2.73      19.6  T
   5   -364.2806608 -0.165419E-07  0.123E-04    2.73      51.8  T
     SCC iter.                  ...        0 min,  0.239 sec
     gradient                   ...        0 min,  0.246 sec
 * total energy  :  -360.0618875 Eh     change       -0.1458273E-04 Eh
   gradient norm :     0.0010611 Eh/α   predicted    -0.6955605E-05 ( -52.30%)
   displ. norm   :     0.1313123 α      lambda       -0.1548320E-04
   maximum displ.:     0.0469606 α      in ANC's #11, #4, #2, ...

........................................................................
.............................. CYCLE  188 ..............................
........................................................................

 iter      E             dE          RMSdq      gap      omega  full diag
   1   -364.2804631 -0.364280E+03  0.925E-03    2.73       0.0  T
   2   -364.2804633 -0.284653E-06  0.547E-03    2.73       1.2  T
   3   -364.2804628  0.558750E-06  0.179E-03    2.73       3.6  T
   4   -364.2804634 -0.622087E-06  0.429E-04    2.73      14.9  T
   5   -364.2804634 -0.324362E-07  0.145E-04    2.73      43.9  T
     SCC iter.                  ...        0 min,  0.239 sec
     gradient                   ...        0 min,  0.246 sec
 * total energy  :  -360.0619057 Eh     change       -0.1818503E-04 Eh
   gradient norm :     0.0009298 Eh/α   predicted    -0.7801216E-05 ( -57.10%)
   displ. norm   :     0.2380675 α      lambda       -0.2577430E-04
   maximum displ.:     0.0861494 α      in ANC's #11, #4, #2, ...

........................................................................
.............................. CYCLE  189 ..............................
........................................................................

 iter      E             dE          RMSdq      gap      omega  full diag
   1   -364.2801204 -0.364280E+03  0.163E-02    2.74       0.0  T
   2   -364.2801211 -0.667568E-06  0.961E-03    2.74       1.0  T
   3   -364.2801195  0.153164E-05  0.289E-03    2.74       2.2  T
   4   -364.2801212 -0.170669E-05  0.637E-04    2.74      10.0  T
   5   -364.2801213 -0.695281E-07  0.232E-04    2.74      27.5  T
   6   -364.2801213 -0.201038E-08  0.118E-04    2.74      53.9  T
     SCC iter.                  ...        0 min,  0.287 sec
     gradient                   ...        0 min,  0.247 sec
 * total energy  :  -360.0619348 Eh     change       -0.2916252E-04 Eh
   gradient norm :     0.0019141 Eh/α   predicted    -0.1323926E-04 ( -54.60%)
   displ. norm   :     0.3007880 α      lambda       -0.2852849E-04
   maximum displ.:     0.1096800 α      in ANC's #11, #4, #2, ...

........................................................................
.............................. CYCLE  190 ..............................
........................................................................

 iter      E             dE          RMSdq      gap      omega  full diag
   1   -364.2799490 -0.364280E+03  0.200E-02    2.74       0.0  T
   2   -364.2799497 -0.637121E-06  0.118E-02    2.74       1.0  T
   3   -364.2799472  0.252512E-05  0.361E-03    2.74       1.8  T
   4   -364.2799500 -0.283254E-05  0.591E-04    2.74      10.8  T
   5   -364.2799500 -0.454777E-07  0.265E-04    2.74      24.1  T
   6   -364.2799500 -0.164897E-08  0.128E-04    2.74      49.8  T
     SCC iter.                  ...        0 min,  0.286 sec
     gradient                   ...        0 min,  0.246 sec
 * total energy  :  -360.0619655 Eh     change       -0.3070292E-04 Eh
   gradient norm :     0.0022160 Eh/α   predicted    -0.1484081E-04 ( -51.66%)
   displ. norm   :     0.1855495 α      lambda       -0.2401965E-04
   maximum displ.:     0.0687019 α      in ANC's #4, #11, #2, ...

........................................................................
.............................. CYCLE  191 ..............................
........................................................................

 iter      E             dE          RMSdq      gap      omega  full diag
   1   -364.2802815 -0.364280E+03  0.114E-02    2.74       0.0  T
   2   -364.2802817 -0.216355E-06  0.677E-03    2.74       1.0  T
   3   -364.2802809  0.816665E-06  0.206E-03    2.74       3.1  T
   4   -364.2802818 -0.915090E-06  0.352E-04    2.74      18.1  T
   5   -364.2802818 -0.167073E-07  0.154E-04    2.74      41.5  T
     SCC iter.                  ...        0 min,  0.239 sec
     gradient                   ...        0 min,  0.246 sec
 * total energy  :  -360.0619847 Eh     change       -0.1913698E-04 Eh
   gradient norm :     0.0016004 Eh/α   predicted    -0.1242491E-04 ( -35.07%)
   displ. norm   :     0.3587917 α      lambda       -0.2851423E-04
   maximum displ.:     0.1387219 α      in ANC's #4, #11, #2, ...

........................................................................
.............................. CYCLE  192 ..............................
........................................................................

 iter      E             dE          RMSdq      gap      omega  full diag
   1   -364.2808386 -0.364281E+03  0.207E-02    2.75       0.0  T
   2   -364.2808394 -0.837889E-06  0.122E-02    2.75       1.0  T
   3   -364.2808370  0.241900E-05  0.360E-03    2.75       1.8  T
   4   -364.2808397 -0.270255E-05  0.736E-04    2.75       8.7  T
   5   -364.2808398 -0.830229E-07  0.290E-04    2.75      22.0  T
   6   -364.2808398 -0.219592E-08  0.144E-04    2.75      44.3  T
     SCC iter.                  ...        0 min,  0.286 sec
     gradient                   ...        0 min,  0.247 sec
 * total energy  :  -360.0620100 Eh     change       -0.2536836E-04 Eh
   gradient norm :     0.0009313 Eh/α   predicted    -0.1507845E-04 ( -40.56%)
   displ. norm   :     0.1192991 α      lambda       -0.1116926E-04
   maximum displ.:     0.0520848 α      in ANC's #4, #11, #2, ...

........................................................................
.............................. CYCLE  193 ..............................
........................................................................

 iter      E             dE          RMSdq      gap      omega  full diag
   1   -364.2810817 -0.364281E+03  0.554E-03    2.75       0.0  T
   2   -364.2810818 -0.122356E-06  0.329E-03    2.74       1.9  T
   3   -364.2810816  0.282159E-06  0.129E-03    2.74       5.0  T
   4   -364.2810819 -0.310846E-06  0.304E-04    2.74      21.0  T
   5   -364.2810819 -0.166482E-07  0.894E-05    2.74      71.5  T
     SCC iter.                  ...        0 min,  0.239 sec
     gradient                   ...        0 min,  0.247 sec
 * total energy  :  -360.0620239 Eh     change       -0.1390646E-04 Eh
   gradient norm :     0.0010649 Eh/α   predicted    -0.5620375E-05 ( -59.58%)
   displ. norm   :     0.2281418 α      lambda       -0.2756106E-04
   maximum displ.:     0.1014616 α      in ANC's #4, #2, #11, ...

........................................................................
.............................. CYCLE  194 ..............................
........................................................................

 iter      E             dE          RMSdq      gap      omega  full diag
   1   -364.2811720 -0.364281E+03  0.107E-02    2.74       0.0  T
   2   -364.2811724 -0.394574E-06  0.639E-03    2.74       1.0  T
   3   -364.2811711  0.129350E-05  0.272E-03    2.74       2.3  T
   4   -364.2811725 -0.145347E-05  0.521E-04    2.74      12.3  T
   5   -364.2811726 -0.427780E-07  0.189E-04    2.74      33.7  T
   6   -364.2811726 -0.905231E-09  0.101E-04    2.74      63.2  T
     SCC iter.                  ...        0 min,  0.286 sec
     gradient                   ...        0 min,  0.246 sec
 * total energy  :  -360.0620508 Eh     change       -0.2689320E-04 Eh
   gradient norm :     0.0014940 Eh/α   predicted    -0.1410488E-04 ( -47.55%)
   displ. norm   :     0.1940270 α      lambda       -0.1535761E-04
   maximum displ.:     0.0905219 α      in ANC's #4, #2, #11, ...

........................................................................
.............................. CYCLE  195 ..............................
........................................................................

 iter      E             dE          RMSdq      gap      omega  full diag
   1   -364.2804701 -0.364280E+03  0.756E-03    2.74       0.0  T
   2   -364.2804702 -0.125928E-06  0.452E-03    2.74       1.4  T
   3   -364.2804695  0.735082E-06  0.199E-03    2.74       3.2  T
   4   -364.2804703 -0.826618E-06  0.277E-04    2.74      23.1  T
   5   -364.2804703 -0.840652E-08  0.124E-04    2.74      51.7  T
     SCC iter.                  ...        0 min,  0.246 sec
     gradient                   ...        0 min,  0.247 sec
 * total energy  :  -360.0620668 Eh     change       -0.1595913E-04 Eh
   gradient norm :     0.0012041 Eh/α   predicted    -0.7811983E-05 ( -51.05%)
   displ. norm   :     0.2015375 α      lambda       -0.1489574E-04
   maximum displ.:     0.0964903 α      in ANC's #4, #2, #11, ...

........................................................................
.............................. CYCLE  196 ..............................
........................................................................

 iter      E             dE          RMSdq      gap      omega  full diag
   1   -364.2802527 -0.364280E+03  0.703E-03    2.74       0.0  T
   2   -364.2802528 -0.134227E-06  0.420E-03    2.74       1.5  T
   3   -364.2802524  0.492389E-06  0.165E-03    2.74       3.9  T
   4   -364.2802529 -0.553223E-06  0.290E-04    2.74      22.1  T
   5   -364.2802529 -0.114993E-07  0.117E-04    2.74      54.8  T
     SCC iter.                  ...        0 min,  0.239 sec
     gradient                   ...        0 min,  0.246 sec
 * total energy  :  -360.0620851 Eh     change       -0.1829641E-04 Eh
   gradient norm :     0.0009141 Eh/α   predicted    -0.7583945E-05 ( -58.55%)
   displ. norm   :     0.3176772 α      lambda       -0.2548835E-04
   maximum displ.:     0.1544710 α      in ANC's #4, #2, #11, ...

........................................................................
.............................. CYCLE  197 ..............................
........................................................................

 iter      E             dE          RMSdq      gap      omega  full diag
   1   -364.2803496 -0.364280E+03  0.107E-02    2.74       0.0  T
   2   -364.2803500 -0.360470E-06  0.640E-03    2.74       1.0  T
   3   -364.2803493  0.742207E-06  0.208E-03    2.74       3.1  T
   4   -364.2803501 -0.834141E-06  0.489E-04    2.74      13.1  T
   5   -364.2803501 -0.388187E-07  0.181E-04    2.74      35.2  T
     SCC iter.                  ...        0 min,  0.240 sec
     gradient                   ...        0 min,  0.247 sec
 * total energy  :  -360.0621144 Eh     change       -0.2928169E-04 Eh
   gradient norm :     0.0013651 Eh/α   predicted    -0.1331702E-04 ( -54.52%)
   displ. norm   :     0.3614557 α      lambda       -0.2409478E-04
   maximum displ.:     0.1786735 α      in ANC's #4, #2, #11, ...

........................................................................
.............................. CYCLE  198 ..............................
........................................................................

 iter      E             dE          RMSdq      gap      omega  full diag
   1   -364.2802017 -0.364280E+03  0.121E-02    2.74       0.0  T
   2   -364.2802020 -0.336536E-06  0.717E-03    2.74       1.0  T
   3   -364.2802014  0.616376E-06  0.193E-03    2.74       3.3  T
   4   -364.2802021 -0.712573E-06  0.457E-04    2.74      14.0  T
   5   -364.2802021 -0.294534E-07  0.195E-04    2.74      32.8  T
     SCC iter.                  ...        0 min,  0.239 sec
     gradient                   ...        0 min,  0.248 sec
 * total energy  :  -360.0621410 Eh     change       -0.2661861E-04 Eh
   gradient norm :     0.0016322 Eh/α   predicted    -0.1275189E-04 ( -52.09%)
   displ. norm   :     0.3259049 α      lambda       -0.1907774E-04
   maximum displ.:     0.1649030 α      in ANC's #4, #2, #11, ...

........................................................................
.............................. CYCLE  199 ..............................
........................................................................

 iter      E             dE          RMSdq      gap      omega  full diag
   1   -364.2806055 -0.364281E+03  0.103E-02    2.75       0.0  T
   2   -364.2806058 -0.227283E-06  0.612E-03    2.75       1.0  T
   3   -364.2806055  0.267362E-06  0.134E-03    2.75       4.8  T
   4   -364.2806058 -0.323226E-06  0.376E-04    2.75      17.0  T
   5   -364.2806059 -0.192445E-07  0.171E-04    2.75      37.4  T
     SCC iter.                  ...        0 min,  0.239 sec
     gradient                   ...        0 min,  0.249 sec
 * total energy  :  -360.0621635 Eh     change       -0.2249411E-04 Eh
   gradient norm :     0.0012593 Eh/α   predicted    -0.9993063E-05 ( -55.57%)
   displ. norm   :     0.3214667 α      lambda       -0.1987435E-04
   maximum displ.:     0.1663088 α      in ANC's #4, #2, #11, ...

........................................................................
.............................. CYCLE  200 ..............................
........................................................................

 iter      E             dE          RMSdq      gap      omega  full diag
   1   -364.2811412 -0.364281E+03  0.979E-03    2.75       0.0  T
   2   -364.2811415 -0.311579E-06  0.581E-03    2.75       1.1  T
   3   -364.2811412  0.296823E-06  0.140E-03    2.75       4.6  T
   4   -364.2811416 -0.343390E-06  0.445E-04    2.75      14.3  T
   5   -364.2811416 -0.334009E-07  0.172E-04    2.75      37.0  T
     SCC iter.                  ...        0 min,  0.239 sec
     gradient                   ...        0 min,  0.248 sec
 * total energy  :  -360.0621878 Eh     change       -0.2433547E-04 Eh
   gradient norm :     0.0007439 Eh/α   predicted    -0.1039626E-04 ( -57.28%)
   displ. norm   :     0.3612241 α      lambda       -0.2298074E-04
   maximum displ.:     0.1898527 α      in ANC's #4, #2, #9, ...

........................................................................
.............................. CYCLE  201 ..............................
........................................................................

 iter      E             dE          RMSdq      gap      omega  full diag
   1   -364.2812262 -0.364281E+03  0.112E-02    2.75       0.0  T
   2   -364.2812265 -0.333757E-06  0.661E-03    2.75       1.0  T
   3   -364.2812263  0.235235E-06  0.129E-03    2.75       5.0  T
   4   -364.2812266 -0.281643E-06  0.476E-04    2.75      13.4  T
   5   -364.2812266 -0.367684E-07  0.194E-04    2.75      32.9  T
     SCC iter.                  ...        0 min,  0.239 sec
     gradient                   ...        0 min,  0.247 sec
 * total energy  :  -360.0622159 Eh     change       -0.2813387E-04 Eh
   gradient norm :     0.0011421 Eh/α   predicted    -0.1215863E-04 ( -56.78%)
   displ. norm   :     0.3944946 α      lambda       -0.2444143E-04
   maximum displ.:     0.2104473 α      in ANC's #4, #2, #9, ...

........................................................................
.............................. CYCLE  202 ..............................
........................................................................

 iter      E             dE          RMSdq      gap      omega  full diag
   1   -364.2811481 -0.364281E+03  0.125E-02    2.75       0.0  T
   2   -364.2811484 -0.287940E-06  0.743E-03    2.75       1.0  T
   3   -364.2811481  0.310980E-06  0.141E-03    2.75       4.5  T
   4   -364.2811485 -0.376172E-06  0.465E-04    2.75      13.7  T
   5   -364.2811485 -0.307781E-07  0.204E-04    2.75      31.3  T
     SCC iter.                  ...        0 min,  0.239 sec
     gradient                   ...        0 min,  0.247 sec
 * total energy  :  -360.0622457 Eh     change       -0.2972642E-04 Eh
   gradient norm :     0.0015817 Eh/α   predicted    -0.1306885E-04 ( -56.04%)
   displ. norm   :     0.4062141 α      lambda       -0.2480506E-04
   maximum displ.:     0.2198149 α      in ANC's #4, #2, #9, ...

........................................................................
.............................. CYCLE  203 ..............................
........................................................................

 iter      E             dE          RMSdq      gap      omega  full diag
   1   -364.2811373 -0.364281E+03  0.134E-02    2.75       0.0  T
   2   -364.2811375 -0.207170E-06  0.793E-03    2.75       1.0  T
   3   -364.2811372  0.322036E-06  0.142E-03    2.75       4.5  T
   4   -364.2811376 -0.407050E-06  0.386E-04    2.75      16.6  T
   5   -364.2811376 -0.126752E-07  0.194E-04    2.75      32.9  T
     SCC iter.                  ...        0 min,  0.239 sec
     gradient                   ...        0 min,  0.248 sec
 * total energy  :  -360.0622760 Eh     change       -0.3030131E-04 Eh
   gradient norm :     0.0013963 Eh/α   predicted    -0.1331311E-04 ( -56.06%)
   displ. norm   :     0.4067227 α      lambda       -0.2444933E-04
   maximum displ.:     0.2234194 α      in ANC's #4, #2, #9, ...

........................................................................
.............................. CYCLE  204 ..............................
........................................................................

 iter      E             dE          RMSdq      gap      omega  full diag
   1   -364.2808313 -0.364281E+03  0.142E-02    2.75       0.0  T
   2   -364.2808316 -0.224218E-06  0.839E-03    2.75       1.0  T
   3   -364.2808313  0.237979E-06  0.131E-03    2.75       4.9  T
   4   -364.2808317 -0.316532E-06  0.393E-04    2.75      16.3  T
   5   -364.2808317 -0.140514E-07  0.200E-04    2.75      32.0  T
     SCC iter.                  ...        0 min,  0.239 sec
     gradient                   ...        0 min,  0.248 sec
 * total energy  :  -360.0623064 Eh     change       -0.3044040E-04 Eh
   gradient norm :     0.0009081 Eh/α   predicted    -0.1312800E-04 ( -56.87%)
   displ. norm   :     0.4034300 α      lambda       -0.2464368E-04
   maximum displ.:     0.2251879 α      in ANC's #4, #2, #9, ...

........................................................................
.............................. CYCLE  205 ..............................
........................................................................

 iter      E             dE          RMSdq      gap      omega  full diag
   1   -364.2808133 -0.364281E+03  0.139E-02    2.75       0.0  T
   2   -364.2808136 -0.264100E-06  0.825E-03    2.75       1.0  T
   3   -364.2808133  0.274970E-06  0.138E-03    2.75       4.6  T
   4   -364.2808137 -0.351247E-06  0.428E-04    2.75      14.9  T
   5   -364.2808137 -0.209482E-07  0.202E-04    2.75      31.6  T
     SCC iter.                  ...        0 min,  0.239 sec
     gradient                   ...        0 min,  0.249 sec
 * total energy  :  -360.0623374 Eh     change       -0.3095613E-04 Eh
   gradient norm :     0.0008491 Eh/α   predicted    -0.1321570E-04 ( -57.31%)
   displ. norm   :     0.4299740 α      lambda       -0.2708824E-04
   maximum displ.:     0.2428415 α      in ANC's #4, #2, #9, ...

........................................................................
.............................. CYCLE  206 ..............................
........................................................................

 iter      E             dE          RMSdq      gap      omega  full diag
   1   -364.2808922 -0.364281E+03  0.152E-02    2.75       0.0  T
   2   -364.2808925 -0.266710E-06  0.900E-03    2.75       1.0  T
   3   -364.2808922  0.265838E-06  0.138E-03    2.75       4.6  T
   4   -364.2808926 -0.352029E-06  0.446E-04    2.75      14.3  T
   5   -364.2808926 -0.211322E-07  0.219E-04    2.75      29.2  T
     SCC iter.                  ...        0 min,  0.239 sec
     gradient                   ...        0 min,  0.248 sec
 * total energy  :  -360.0623718 Eh     change       -0.3442136E-04 Eh
   gradient norm :     0.0012478 Eh/α   predicted    -0.1466019E-04 ( -57.41%)
   displ. norm   :     0.4791400 α      lambda       -0.3085966E-04
   maximum displ.:     0.2729254 α      in ANC's #4, #2, #9, ...

........................................................................
.............................. CYCLE  207 ..............................
........................................................................

 iter      E             dE          RMSdq      gap      omega  full diag
   1   -364.2808514 -0.364281E+03  0.169E-02    2.75       0.0  T
   2   -364.2808517 -0.302714E-06  0.100E-02    2.75       1.0  T
   3   -364.2808512  0.492667E-06  0.175E-03    2.75       3.6  T
   4   -364.2808518 -0.620472E-06  0.481E-04    2.75      13.3  T
   5   -364.2808518 -0.208357E-07  0.242E-04    2.75      26.4  T
     SCC iter.                  ...        0 min,  0.239 sec
     gradient                   ...        0 min,  0.248 sec
 * total energy  :  -360.0624114 Eh     change       -0.3960491E-04 Eh
   gradient norm :     0.0014986 Eh/α   predicted    -0.1700775E-04 ( -57.06%)
   displ. norm   :     0.5260301 α      lambda       -0.3427862E-04
   maximum displ.:     0.3021665 α      in ANC's #4, #2, #6, ...

........................................................................
.............................. CYCLE  208 ..............................
........................................................................

 iter      E             dE          RMSdq      gap      omega  full diag
   1   -364.2811273 -0.364281E+03  0.182E-02    2.75       0.0  T
   2   -364.2811277 -0.409659E-06  0.108E-02    2.75       1.0  T
   3   -364.2811271  0.617340E-06  0.194E-03    2.75       3.3  T
   4   -364.2811279 -0.769713E-06  0.565E-04    2.75      11.3  T
   5   -364.2811279 -0.341744E-07  0.274E-04    2.75      23.3  T
     SCC iter.                  ...        0 min,  0.239 sec
     gradient                   ...        0 min,  0.249 sec
 * total energy  :  -360.0624550 Eh     change       -0.4358414E-04 Eh
   gradient norm :     0.0013591 Eh/α   predicted    -0.1924943E-04 ( -55.83%)
   displ. norm   :     0.5411599 α      lambda       -0.3444624E-04
   maximum displ.:     0.3135247 α      in ANC's #4, #2, #6, ...

........................................................................
.............................. CYCLE  209 ..............................
........................................................................

 iter      E             dE          RMSdq      gap      omega  full diag
   1   -364.2814411 -0.364281E+03  0.188E-02    2.75       0.0  T
   2   -364.2814415 -0.456627E-06  0.111E-02    2.75       1.0  T
   3   -364.2814407  0.815041E-06  0.218E-03    2.75       2.9  T
   4   -364.2814417 -0.995108E-06  0.581E-04    2.75      11.0  T
   5   -364.2814418 -0.349461E-07  0.289E-04    2.75      22.1  T
     SCC iter.                  ...        0 min,  0.239 sec
     gradient                   ...        0 min,  0.249 sec
 * total energy  :  -360.0624982 Eh     change       -0.4323568E-04 Eh
   gradient norm :     0.0009716 Eh/α   predicted    -0.1946854E-04 ( -54.97%)
   displ. norm   :     0.5101661 α      lambda       -0.3099800E-04
   maximum displ.:     0.2983885 α      in ANC's #4, #2, #6, ...

........................................................................
.............................. CYCLE  210 ..............................
........................................................................

 iter      E             dE          RMSdq      gap      omega  full diag
   1   -364.2817245 -0.364282E+03  0.165E-02    2.75       0.0  T
   2   -364.2817249 -0.430493E-06  0.979E-03    2.75       1.0  T
   3   -364.2817241  0.766117E-06  0.208E-03    2.75       3.1  T
   4   -364.2817251 -0.918056E-06  0.560E-04    2.75      11.4  T
   5   -364.2817251 -0.375364E-07  0.267E-04    2.75      23.9  T
     SCC iter.                  ...        0 min,  0.239 sec
     gradient                   ...        0 min,  0.249 sec
 * total energy  :  -360.0625378 Eh     change       -0.3960682E-04 Eh
   gradient norm :     0.0007675 Eh/α   predicted    -0.1729675E-04 ( -56.33%)
   displ. norm   :     0.4665225 α      lambda       -0.2873654E-04
   maximum displ.:     0.2750881 α      in ANC's #4, #2, #6, ...

........................................................................
.............................. CYCLE  211 ..............................
........................................................................

 iter      E             dE          RMSdq      gap      omega  full diag
   1   -364.2821538 -0.364282E+03  0.145E-02    2.75       0.0  T
   2   -364.2821541 -0.318187E-06  0.860E-03    2.75       1.0  T
   3   -364.2821534  0.705689E-06  0.197E-03    2.75       3.2  T
   4   -364.2821543 -0.840741E-06  0.470E-04    2.75      13.6  T
   5   -364.2821543 -0.235814E-07  0.237E-04    2.75      26.9  T
     SCC iter.                  ...        0 min,  0.239 sec
     gradient                   ...        0 min,  0.249 sec
 * total energy  :  -360.0625755 Eh     change       -0.3763507E-04 Eh
   gradient norm :     0.0009753 Eh/α   predicted    -0.1576209E-04 ( -58.12%)
   displ. norm   :     0.4858571 α      lambda       -0.3157109E-04
   maximum displ.:     0.2873801 α      in ANC's #4, #2, #6, ...

........................................................................
.............................. CYCLE  212 ..............................
........................................................................

 iter      E             dE          RMSdq      gap      omega  full diag
   1   -364.2822625 -0.364282E+03  0.144E-02    2.75       0.0  T
   2   -364.2822629 -0.337093E-06  0.852E-03    2.75       1.0  T
   3   -364.2822621  0.720834E-06  0.200E-03    2.75       3.2  T
   4   -364.2822630 -0.853533E-06  0.486E-04    2.75      13.2  T
   5   -364.2822630 -0.271706E-07  0.236E-04    2.75      27.1  T
     SCC iter.                  ...        0 min,  0.239 sec
     gradient                   ...        0 min,  0.249 sec
 * total energy  :  -360.0626173 Eh     change       -0.4179360E-04 Eh
   gradient norm :     0.0011946 Eh/α   predicted    -0.1744237E-04 ( -58.27%)
   displ. norm   :     0.5424632 α      lambda       -0.3663898E-04
   maximum displ.:     0.3216141 α      in ANC's #4, #2, #6, ...

........................................................................
.............................. CYCLE  213 ..............................
........................................................................

 iter      E             dE          RMSdq      gap      omega  full diag
   1   -364.2822443 -0.364282E+03  0.153E-02    2.75       0.0  T
   2   -364.2822447 -0.388999E-06  0.906E-03    2.75       1.0  T
   3   -364.2822435  0.122030E-05  0.256E-03    2.75       2.5  T
   4   -364.2822449 -0.141282E-05  0.513E-04    2.75      12.4  T
   5   -364.2822450 -0.285609E-07  0.255E-04    2.75      25.0  T
   6   -364.2822450 -0.161049E-08  0.100E-04    2.75      63.8  T
     SCC iter.                  ...        0 min,  0.286 sec
     gradient                   ...        0 min,  0.249 sec
 * total energy  :  -360.0626658 Eh     change       -0.4859020E-04 Eh
   gradient norm :     0.0011934 Eh/α   predicted    -0.2071777E-04 ( -57.36%)
   displ. norm   :     0.6133847 α      lambda       -0.4140183E-04
   maximum displ.:     0.3637054 α      in ANC's #4, #2, #6, ...

........................................................................
.............................. CYCLE  214 ..............................
........................................................................

 iter      E             dE          RMSdq      gap      omega  full diag
   1   -364.2821986 -0.364282E+03  0.167E-02    2.75       0.0  T
   2   -364.2821990 -0.450824E-06  0.990E-03    2.75       1.0  T
   3   -364.2821977  0.137730E-05  0.273E-03    2.75       2.3  T
   4   -364.2821992 -0.159127E-05  0.560E-04    2.75      11.4  T
   5   -364.2821993 -0.346175E-07  0.271E-04    2.75      23.5  T
   6   -364.2821993 -0.172048E-08  0.113E-04    2.75      56.7  T
     SCC iter.                  ...        0 min,  0.285 sec
     gradient                   ...        0 min,  0.251 sec
 * total energy  :  -360.0627212 Eh     change       -0.5534263E-04 Eh
   gradient norm :     0.0009807 Eh/α   predicted    -0.2416693E-04 ( -56.33%)
   displ. norm   :     0.6849539 α      lambda       -0.4672488E-04
   maximum displ.:     0.4067550 α      in ANC's #4, #2, #6, ...

........................................................................
.............................. CYCLE  215 ..............................
........................................................................

 iter      E             dE          RMSdq      gap      omega  full diag
   1   -364.2820665 -0.364282E+03  0.176E-02    2.75       0.0  T
   2   -364.2820671 -0.516268E-06  0.104E-02    2.75       1.0  T
   3   -364.2820652  0.187825E-05  0.317E-03    2.75       2.0  T
   4   -364.2820673 -0.215269E-05  0.586E-04    2.75      10.9  T
   5   -364.2820674 -0.363345E-07  0.287E-04    2.75      22.2  T
   6   -364.2820674 -0.174606E-08  0.126E-04    2.75      50.5  T
     SCC iter.                  ...        0 min,  0.287 sec
     gradient                   ...        0 min,  0.250 sec
 * total energy  :  -360.0627845 Eh     change       -0.6330696E-04 Eh
   gradient norm :     0.0009160 Eh/α   predicted    -0.2823495E-04 ( -55.40%)
   displ. norm   :     0.7644780 α      lambda       -0.5418652E-04
   maximum displ.:     0.4543878 α      in ANC's #4, #2, #6, ...

........................................................................
.............................. CYCLE  216 ..............................
........................................................................

 iter      E             dE          RMSdq      gap      omega  full diag
   1   -364.2819727 -0.364282E+03  0.189E-02    2.75       0.0  T
   2   -364.2819733 -0.562665E-06  0.112E-02    2.75       1.0  T
   3   -364.2819711  0.218889E-05  0.344E-03    2.75       1.9  T
   4   -364.2819736 -0.250325E-05  0.611E-04    2.75      10.5  T
   5   -364.2819737 -0.369124E-07  0.302E-04    2.75      21.2  T
   6   -364.2819737 -0.174680E-08  0.143E-04    2.75      44.7  T
     SCC iter.                  ...        0 min,  0.286 sec
     gradient                   ...        0 min,  0.251 sec
 * total energy  :  -360.0628597 Eh     change       -0.7518233E-04 Eh
   gradient norm :     0.0011299 Eh/α   predicted    -0.3413486E-04 ( -54.60%)
   displ. norm   :     0.8635944 α      lambda       -0.6608274E-04
   maximum displ.:     0.5140632 α      in ANC's #4, #2, #6, ...

........................................................................
.............................. CYCLE  217 ..............................
........................................................................

 iter      E             dE          RMSdq      gap      omega  full diag
   1   -364.2820421 -0.364282E+03  0.201E-02    2.75       0.0  T
   2   -364.2820428 -0.658889E-06  0.119E-02    2.75       1.0  T
   3   -364.2820406  0.222624E-05  0.349E-03    2.75       1.8  T
   4   -364.2820431 -0.256027E-05  0.673E-04    2.75       9.5  T
   5   -364.2820432 -0.472446E-07  0.326E-04    2.75      19.6  T
   6   -364.2820432 -0.191176E-08  0.150E-04    2.75      42.6  T
     SCC iter.                  ...        0 min,  0.286 sec
     gradient                   ...        0 min,  0.250 sec
 * total energy  :  -360.0629530 Eh     change       -0.9327883E-04 Eh
   gradient norm :     0.0014728 Eh/α   predicted    -0.4399322E-04 ( -52.84%)
   displ. norm   :     0.9769881 α      lambda       -0.8229798E-04
   maximum displ.:     0.5822999 α      in ANC's #4, #2, #6, ...

........................................................................
.............................. CYCLE  218 ..............................
........................................................................

 iter      E             dE          RMSdq      gap      omega  full diag
   1   -364.2821019 -0.364282E+03  0.218E-02    2.76       0.0  T
   2   -364.2821027 -0.784927E-06  0.129E-02    2.76       1.0  T
   3   -364.2821003  0.240210E-05  0.366E-03    2.76       1.7  T
   4   -364.2821030 -0.277754E-05  0.751E-04    2.76       8.5  T
   5   -364.2821031 -0.595294E-07  0.359E-04    2.76      17.8  T
   6   -364.2821031 -0.201283E-08  0.163E-04    2.76      39.2  T
     SCC iter.                  ...        0 min,  0.286 sec
     gradient                   ...        0 min,  0.251 sec
 * total energy  :  -360.0630698 Eh     change       -0.1168054E-03 Eh
   gradient norm :     0.0017255 Eh/α   predicted    -0.5860629E-04 ( -49.83%)
   displ. norm   :     1.0806736 α      lambda       -0.9970537E-04
   maximum displ.:     0.6449712 α      in ANC's #4, #2, #8, ...

........................................................................
.............................. CYCLE  219 ..............................
........................................................................

 iter      E             dE          RMSdq      gap      omega  full diag
   1   -364.2821415 -0.364282E+03  0.232E-02    2.76       0.0  T
   2   -364.2821425 -0.100899E-05  0.137E-02    2.76       1.0  T
   3   -364.2821406  0.186925E-05  0.335E-03    2.76       1.9  T
   4   -364.2821428 -0.220328E-05  0.896E-04    2.76       7.1  T
   5   -364.2821429 -0.101395E-06  0.397E-04    2.76      16.1  T
   6   -364.2821430 -0.233285E-08  0.169E-04    2.76      37.9  T
     SCC iter.                  ...        0 min,  0.287 sec
     gradient                   ...        0 min,  0.251 sec
 * total energy  :  -360.0632100 Eh     change       -0.1401972E-03 Eh
   gradient norm :     0.0016681 Eh/α   predicted    -0.7573058E-04 ( -45.98%)
   displ. norm   :     1.1516642 α      lambda       -0.1123320E-03
   maximum displ.:     0.6890414 α      in ANC's #4, #2, #8, ...
 * RMSD in coord.:     0.9154386 α      energy gain  -0.1485531E-02 Eh

generating ANC from exact Hessian ...
Using Lindh-Hessian (1995)
 Shifting diagonal of input Hessian by    1.0049140673772741E-002
 Lowest  eigenvalues of input Hessian
    0.010000    0.010017    0.010023    0.010044    0.000000    0.000000
    0.000000    0.000000    0.000000    0.000000    0.010052    0.010054
    0.010065    0.010078    0.010114    0.010136    0.010159    0.010181
 Highest eigenvalues
    2.334801    2.339358    2.358422    2.380980    2.395238    2.396939


........................................................................
.............................. CYCLE  220 ..............................
........................................................................

 iter      E             dE          RMSdq      gap      omega  full diag
   1   -364.2826489 -0.364283E+03  0.238E-02    2.77       0.0  T
   2   -364.2826500 -0.106934E-05  0.141E-02    2.77       1.0  T
   3   -364.2826485  0.146634E-05  0.307E-03    2.77       2.1  T
   4   -364.2826503 -0.178862E-05  0.948E-04    2.77       6.7  T
   5   -364.2826504 -0.110793E-06  0.420E-04    2.77      15.2  T
   6   -364.2826504 -0.306983E-08  0.160E-04    2.77      39.8  T
     SCC iter.                  ...        0 min,  0.286 sec
     gradient                   ...        0 min,  0.252 sec
 * total energy  :  -360.0633653 Eh     change       -0.1553681E-03 Eh
   gradient norm :     0.0017498 Eh/α   predicted     0.0000000E+00 (-100.00%)
   displ. norm   :     0.0503124 α      lambda       -0.2011934E-04
   maximum displ.:     0.0148238 α      in ANC's #4, #5, #20, ...

........................................................................
.............................. CYCLE  221 ..............................
........................................................................

 iter      E             dE          RMSdq      gap      omega  full diag
   1   -364.2824865 -0.364282E+03  0.458E-03    2.77       0.0  T
   2   -364.2824867 -0.119087E-06  0.276E-03    2.77       2.3  T
   3   -364.2824864  0.237423E-06  0.120E-03    2.77       5.3  T
   4   -364.2824867 -0.270474E-06  0.278E-04    2.77      23.0  T
   5   -364.2824867 -0.125985E-07  0.867E-05    2.77      73.7  T
     SCC iter.                  ...        0 min,  0.239 sec
     gradient                   ...        0 min,  0.252 sec
 * total energy  :  -360.0633894 Eh     change       -0.2408401E-04 Eh
   gradient norm :     0.0007895 Eh/α   predicted    -0.1012338E-04 ( -57.97%)
   displ. norm   :     0.1797762 α      lambda       -0.4881038E-04
   maximum displ.:     0.0561949 α      in ANC's #4, #5, #20, ...

........................................................................
.............................. CYCLE  222 ..............................
........................................................................

 iter      E             dE          RMSdq      gap      omega  full diag
   1   -364.2822242 -0.364282E+03  0.136E-02    2.77       0.0  T
   2   -364.2822250 -0.829498E-06  0.811E-03    2.77       1.0  T
   3   -364.2822234  0.163114E-05  0.318E-03    2.77       2.0  T
   4   -364.2822253 -0.185547E-05  0.764E-04    2.77       8.4  T
   5   -364.2822254 -0.962928E-07  0.271E-04    2.77      23.6  T
   6   -364.2822254 -0.182735E-08  0.140E-04    2.77      45.7  T
     SCC iter.                  ...        0 min,  0.286 sec
     gradient                   ...        0 min,  0.251 sec
 * total energy  :  -360.0634343 Eh     change       -0.4493713E-04 Eh
   gradient norm :     0.0023766 Eh/α   predicted    -0.2475685E-04 ( -44.91%)
   displ. norm   :     0.0871278 α      lambda       -0.2160887E-04
   maximum displ.:     0.0317944 α      in ANC's #4, #5, #20, ...

........................................................................
.............................. CYCLE  223 ..............................
........................................................................

 iter      E             dE          RMSdq      gap      omega  full diag
   1   -364.2824759 -0.364282E+03  0.552E-03    2.77       0.0  T
   2   -364.2824760 -0.926464E-07  0.329E-03    2.77       1.9  T
   3   -364.2824757  0.341582E-06  0.141E-03    2.77       4.5  T
   4   -364.2824761 -0.389896E-06  0.245E-04    2.77      26.1  T
   5   -364.2824761 -0.739016E-08  0.107E-04    2.77      59.8  T
     SCC iter.                  ...        0 min,  0.239 sec
     gradient                   ...        0 min,  0.252 sec
 * total energy  :  -360.0634513 Eh     change       -0.1693123E-04 Eh
   gradient norm :     0.0017200 Eh/α   predicted    -0.1088871E-04 ( -35.69%)
   displ. norm   :     0.2423263 α      lambda       -0.3200586E-04
   maximum displ.:     0.0930878 α      in ANC's #4, #5, #26, ...

........................................................................
.............................. CYCLE  224 ..............................
........................................................................

 iter      E             dE          RMSdq      gap      omega  full diag
   1   -364.2829243 -0.364283E+03  0.136E-02    2.77       0.0  T
   2   -364.2829249 -0.570906E-06  0.813E-03    2.77       1.0  T
   3   -364.2829230  0.183597E-05  0.327E-03    2.77       2.0  T
   4   -364.2829252 -0.210343E-05  0.589E-04    2.77      10.8  T
   5   -364.2829252 -0.400046E-07  0.265E-04    2.77      24.1  T
   6   -364.2829252 -0.121292E-08  0.139E-04    2.77      45.9  T
     SCC iter.                  ...        0 min,  0.286 sec
     gradient                   ...        0 min,  0.252 sec
 * total energy  :  -360.0634817 Eh     change       -0.3041894E-04 Eh
   gradient norm :     0.0012930 Eh/α   predicted    -0.1646501E-04 ( -45.87%)
   displ. norm   :     0.1579588 α      lambda       -0.2176705E-04
   maximum displ.:     0.0667991 α      in ANC's #4, #5, #8, ...

........................................................................
.............................. CYCLE  225 ..............................
........................................................................

 iter      E             dE          RMSdq      gap      omega  full diag
   1   -364.2832247 -0.364283E+03  0.796E-03    2.76       0.0  T
   2   -364.2832250 -0.225870E-06  0.474E-03    2.76       1.3  T
   3   -364.2832245  0.482622E-06  0.168E-03    2.76       3.8  T
   4   -364.2832250 -0.551562E-06  0.372E-04    2.76      17.2  T
   5   -364.2832251 -0.199339E-07  0.155E-04    2.76      41.2  T
     SCC iter.                  ...        0 min,  0.239 sec
     gradient                   ...        0 min,  0.252 sec
 * total energy  :  -360.0635091 Eh     change       -0.2742853E-04 Eh
   gradient norm :     0.0012691 Eh/α   predicted    -0.1101155E-04 ( -59.85%)
   displ. norm   :     0.3231215 α      lambda       -0.4616092E-04
   maximum displ.:     0.1394189 α      in ANC's #4, #5, #8, ...

........................................................................
.............................. CYCLE  226 ..............................
........................................................................

 iter      E             dE          RMSdq      gap      omega  full diag
   1   -364.2832961 -0.364283E+03  0.162E-02    2.76       0.0  T
   2   -364.2832969 -0.798121E-06  0.964E-03    2.76       1.0  T
   3   -364.2832951  0.176849E-05  0.317E-03    2.76       2.0  T
   4   -364.2832971 -0.203598E-05  0.689E-04    2.76       9.3  T
   5   -364.2832972 -0.674323E-07  0.308E-04    2.76      20.7  T
   6   -364.2832972 -0.353282E-08  0.131E-04    2.76      48.9  T
     SCC iter.                  ...        0 min,  0.290 sec
     gradient                   ...        0 min,  0.251 sec
 * total energy  :  -360.0635572 Eh     change       -0.4809460E-04 Eh
   gradient norm :     0.0016751 Eh/α   predicted    -0.2415244E-04 ( -49.78%)
   displ. norm   :     0.2921326 α      lambda       -0.3007938E-04
   maximum displ.:     0.1310979 α      in ANC's #4, #5, #8, ...

........................................................................
.............................. CYCLE  227 ..............................
........................................................................

 iter      E             dE          RMSdq      gap      omega  full diag
   1   -364.2829891 -0.364283E+03  0.134E-02    2.75       0.0  T
   2   -364.2829897 -0.636638E-06  0.798E-03    2.76       1.0  T
   3   -364.2829882  0.155646E-05  0.299E-03    2.76       2.1  T
   4   -364.2829900 -0.178383E-05  0.634E-04    2.76      10.1  T
   5   -364.2829900 -0.644289E-07  0.261E-04    2.76      24.5  T
   6   -364.2829900 -0.206620E-08  0.103E-04    2.76      61.8  T
     SCC iter.                  ...        0 min,  0.287 sec
     gradient                   ...        0 min,  0.252 sec
 * total energy  :  -360.0635878 Eh     change       -0.3060892E-04 Eh
   gradient norm :     0.0016470 Eh/α   predicted    -0.1561142E-04 ( -49.00%)
   displ. norm   :     0.2615928 α      lambda       -0.2709328E-04
   maximum displ.:     0.1214405 α      in ANC's #4, #5, #8, ...

........................................................................
.............................. CYCLE  228 ..............................
........................................................................

 iter      E             dE          RMSdq      gap      omega  full diag
   1   -364.2831714 -0.364283E+03  0.108E-02    2.75       0.0  T
   2   -364.2831719 -0.429325E-06  0.645E-03    2.75       1.0  T
   3   -364.2831708  0.103796E-05  0.246E-03    2.75       2.6  T
   4   -364.2831720 -0.118812E-05  0.534E-04    2.75      12.0  T
   5   -364.2831721 -0.467554E-07  0.215E-04    2.75      29.7  T
   6   -364.2831721 -0.142592E-08  0.929E-05    2.75      68.8  T
     SCC iter.                  ...        0 min,  0.286 sec
     gradient                   ...        0 min,  0.255 sec
 * total energy  :  -360.0636201 Eh     change       -0.3231125E-04 Eh
   gradient norm :     0.0013180 Eh/α   predicted    -0.1396453E-04 ( -56.78%)
   displ. norm   :     0.3532787 α      lambda       -0.4107473E-04
   maximum displ.:     0.1677003 α      in ANC's #4, #5, #8, ...

........................................................................
.............................. CYCLE  229 ..............................
........................................................................

 iter      E             dE          RMSdq      gap      omega  full diag
   1   -364.2834325 -0.364283E+03  0.139E-02    2.75       0.0  T
   2   -364.2834334 -0.825860E-06  0.826E-03    2.75       1.0  T
   3   -364.2834318  0.160754E-05  0.312E-03    2.75       2.0  T
   4   -364.2834336 -0.182730E-05  0.763E-04    2.75       8.4  T
   5   -364.2834337 -0.101839E-06  0.274E-04    2.75      23.4  T
   6   -364.2834337 -0.208416E-08  0.130E-04    2.75      49.2  T
     SCC iter.                  ...        0 min,  0.298 sec
     gradient                   ...        0 min,  0.259 sec
 * total energy  :  -360.0636678 Eh     change       -0.4764059E-04 Eh
   gradient norm :     0.0014141 Eh/α   predicted    -0.2168089E-04 ( -54.49%)
   displ. norm   :     0.4260033 α      lambda       -0.4485993E-04
   maximum displ.:     0.2057432 α      in ANC's #4, #5, #8, ...

........................................................................
.............................. CYCLE  230 ..............................
........................................................................

 iter      E             dE          RMSdq      gap      omega  full diag
   1   -364.2829660 -0.364283E+03  0.158E-02    2.75       0.0  T
   2   -364.2829669 -0.867573E-06  0.938E-03    2.75       1.0  T
   3   -364.2829649  0.197063E-05  0.339E-03    2.75       1.9  T
   4   -364.2829671 -0.224709E-05  0.804E-04    2.75       8.0  T
   5   -364.2829672 -0.104347E-06  0.312E-04    2.75      20.4  T
   6   -364.2829672 -0.154705E-08  0.141E-04    2.75      45.4  T
     SCC iter.                  ...        0 min,  0.295 sec
     gradient                   ...        0 min,  0.255 sec
 * total energy  :  -360.0637172 Eh     change       -0.4942360E-04 Eh
   gradient norm :     0.0017864 Eh/α   predicted    -0.2423967E-04 ( -50.96%)
   displ. norm   :     0.4022869 α      lambda       -0.3864183E-04
   maximum displ.:     0.1975431 α      in ANC's #4, #5, #8, ...

........................................................................
.............................. CYCLE  231 ..............................
........................................................................

 iter      E             dE          RMSdq      gap      omega  full diag
   1   -364.2829973 -0.364283E+03  0.140E-02    2.76       0.0  T
   2   -364.2829979 -0.593522E-06  0.827E-03    2.76       1.0  T
   3   -364.2829968  0.112596E-05  0.256E-03    2.76       2.5  T
   4   -364.2829981 -0.127955E-05  0.681E-04    2.76       9.4  T
   5   -364.2829981 -0.740032E-07  0.258E-04    2.76      24.8  T
   6   -364.2829981 -0.831108E-09  0.114E-04    2.76      56.2  T
     SCC iter.                  ...        0 min,  0.294 sec
     gradient                   ...        0 min,  0.260 sec
 * total energy  :  -360.0637650 Eh     change       -0.4776764E-04 Eh
   gradient norm :     0.0017246 Eh/α   predicted    -0.2071477E-04 ( -56.63%)
   displ. norm   :     0.4891861 α      lambda       -0.5096617E-04
   maximum displ.:     0.2424197 α      in ANC's #4, #5, #8, ...

........................................................................
.............................. CYCLE  232 ..............................
........................................................................

 iter      E             dE          RMSdq      gap      omega  full diag
   1   -364.2829204 -0.364283E+03  0.159E-02    2.76       0.0  T
   2   -364.2829212 -0.839321E-06  0.939E-03    2.76       1.0  T
   3   -364.2829202  0.100999E-05  0.249E-03    2.76       2.6  T
   4   -364.2829213 -0.113343E-05  0.833E-04    2.76       7.7  T
   5   -364.2829215 -0.120485E-06  0.288E-04    2.76      22.2  T
   6   -364.2829215 -0.174731E-08  0.134E-04    2.76      47.9  T
     SCC iter.                  ...        0 min,  0.295 sec
     gradient                   ...        0 min,  0.254 sec
 * total energy  :  -360.0638306 Eh     change       -0.6560029E-04 Eh
   gradient norm :     0.0016915 Eh/α   predicted    -0.2819460E-04 ( -57.02%)
   displ. norm   :     0.6567718 α      lambda       -0.7114084E-04
   maximum displ.:     0.3275840 α      in ANC's #4, #5, #8, ...

........................................................................
.............................. CYCLE  233 ..............................
........................................................................

 iter      E             dE          RMSdq      gap      omega  full diag
   1   -364.2825019 -0.364283E+03  0.201E-02    2.76       0.0  T
   2   -364.2825033 -0.142304E-05  0.119E-02    2.76       1.0  T
   3   -364.2825021  0.118268E-05  0.280E-03    2.76       2.3  T
   4   -364.2825035 -0.132626E-05  0.108E-03    2.76       5.9  T
   5   -364.2825037 -0.209760E-06  0.369E-04    2.76      17.3  T
   6   -364.2825037 -0.399240E-08  0.174E-04    2.76      36.8  T
     SCC iter.                  ...        0 min,  0.292 sec
     gradient                   ...        0 min,  0.255 sec
 * total energy  :  -360.0639184 Eh     change       -0.8785393E-04 Eh
   gradient norm :     0.0019457 Eh/α   predicted    -0.4239426E-04 ( -51.74%)
   displ. norm   :     0.7413925 α      lambda       -0.7519566E-04
   maximum displ.:     0.3729286 α      in ANC's #4, #5, #8, ...

........................................................................
.............................. CYCLE  234 ..............................
........................................................................

 iter      E             dE          RMSdq      gap      omega  full diag
   1   -364.2819939 -0.364282E+03  0.216E-02    2.77       0.0  T
   2   -364.2819953 -0.136528E-05  0.128E-02    2.77       1.0  T
   3   -364.2819936  0.172086E-05  0.325E-03    2.77       2.0  T
   4   -364.2819955 -0.198725E-05  0.103E-03    2.77       6.2  T
   5   -364.2819957 -0.169525E-06  0.399E-04    2.77      16.0  T
   6   -364.2819957 -0.490530E-08  0.186E-04    2.77      34.3  T
     SCC iter.                  ...        0 min,  0.289 sec
     gradient                   ...        0 min,  0.255 sec
 * total energy  :  -360.0640094 Eh     change       -0.9093327E-04 Eh
   gradient norm :     0.0023436 Eh/α   predicted    -0.4678515E-04 ( -48.55%)
   displ. norm   :     0.4969489 α      lambda       -0.7293870E-04
   maximum displ.:     0.2520596 α      in ANC's #4, #5, #8, ...

........................................................................
.............................. CYCLE  235 ..............................
........................................................................

 iter      E             dE          RMSdq      gap      omega  full diag
   1   -364.2820309 -0.364282E+03  0.134E-02    2.77       0.0  T
   2   -364.2820314 -0.518476E-06  0.792E-03    2.77       1.0  T
   3   -364.2820306  0.747050E-06  0.214E-03    2.77       3.0  T
   4   -364.2820315 -0.861926E-06  0.641E-04    2.77      10.0  T
   5   -364.2820316 -0.639438E-07  0.253E-04    2.77      25.2  T
     SCC iter.                  ...        0 min,  0.243 sec
     gradient                   ...        0 min,  0.254 sec
 * total energy  :  -360.0640754 Eh     change       -0.6604176E-04 Eh
   gradient norm :     0.0021093 Eh/α   predicted    -0.4547888E-04 ( -31.14%)
   displ. norm   :     0.5772192 α      lambda       -0.9709387E-04
   maximum displ.:     0.2948384 α      in ANC's #4, #5, #8, ...

........................................................................
.............................. CYCLE  236 ..............................
........................................................................

 iter      E             dE          RMSdq      gap      omega  full diag
   1   -364.2824900 -0.364282E+03  0.149E-02    2.77       0.0  T
   2   -364.2824908 -0.734706E-06  0.882E-03    2.77       1.0  T
   3   -364.2824895  0.124377E-05  0.277E-03    2.77       2.3  T
   4   -364.2824910 -0.142848E-05  0.755E-04    2.77       8.5  T
   5   -364.2824911 -0.891697E-07  0.291E-04    2.77      21.9  T
   6   -364.2824911 -0.266010E-08  0.135E-04    2.77      47.3  T
     SCC iter.                  ...        0 min,  0.294 sec
     gradient                   ...        0 min,  0.256 sec
 * total energy  :  -360.0641639 Eh     change       -0.8853178E-04 Eh
   gradient norm :     0.0017651 Eh/α   predicted    -0.6472585E-04 ( -26.89%)
   displ. norm   :     0.9762912 α      lambda       -0.1195050E-03
   maximum displ.:     0.5015666 α      in ANC's #4, #5, #8, ...

........................................................................
.............................. CYCLE  237 ..............................
........................................................................

 iter      E             dE          RMSdq      gap      omega  full diag
   1   -364.2826285 -0.364283E+03  0.246E-02    2.77       0.0  T
   2   -364.2826308 -0.228960E-05  0.146E-02    2.77       1.0  T
   3   -364.2826264  0.437559E-05  0.517E-03    2.77       1.2  T
   4   -364.2826314 -0.496672E-05  0.133E-03    2.77       4.8  T
   5   -364.2826316 -0.285108E-06  0.484E-04    2.77      13.2  T
   6   -364.2826316 -0.710264E-08  0.235E-04    2.77      27.1  T
     SCC iter.                  ...        0 min,  0.291 sec
     gradient                   ...        0 min,  0.257 sec
 * total energy  :  -360.0643167 Eh     change       -0.1527361E-03 Eh
   gradient norm :     0.0018624 Eh/α   predicted    -0.8507035E-04 ( -44.30%)
   displ. norm   :     0.9554274 α      lambda       -0.1096947E-03
   maximum displ.:     0.4940507 α      in ANC's #4, #5, #8, ...

........................................................................
.............................. CYCLE  238 ..............................
........................................................................

 iter      E             dE          RMSdq      gap      omega  full diag
   1   -364.2819955 -0.364282E+03  0.228E-02    2.77       0.0  T
   2   -364.2819975 -0.205443E-05  0.135E-02    2.77       1.0  T
   3   -364.2819933  0.425201E-05  0.506E-03    2.77       1.3  T
   4   -364.2819981 -0.482580E-05  0.125E-03    2.77       5.1  T
   5   -364.2819983 -0.244589E-06  0.454E-04    2.77      14.1  T
   6   -364.2819983 -0.535152E-08  0.221E-04    2.77      29.0  T
     SCC iter.                  ...        0 min,  0.289 sec
     gradient                   ...        0 min,  0.254 sec
 * total energy  :  -360.0644637 Eh     change       -0.1470237E-03 Eh
   gradient norm :     0.0022722 Eh/α   predicted    -0.7710658E-04 ( -47.55%)
   displ. norm   :     0.6404999 α      lambda       -0.1209320E-03
   maximum displ.:     0.3330538 α      in ANC's #4, #5, #8, ...

........................................................................
.............................. CYCLE  239 ..............................
........................................................................

 iter      E             dE          RMSdq      gap      omega  full diag
   1   -364.2824790 -0.364282E+03  0.148E-02    2.77       0.0  T
   2   -364.2824798 -0.728954E-06  0.878E-03    2.77       1.0  T
   3   -364.2824778  0.193720E-05  0.337E-03    2.77       1.9  T
   4   -364.2824801 -0.221310E-05  0.739E-04    2.77       8.6  T
   5   -364.2824801 -0.774470E-07  0.296E-04    2.77      21.6  T
   6   -364.2824801 -0.190289E-08  0.136E-04    2.77      47.0  T
     SCC iter.                  ...        0 min,  0.287 sec
     gradient                   ...        0 min,  0.254 sec
 * total energy  :  -360.0645766 Eh     change       -0.1129255E-03 Eh
   gradient norm :     0.0020032 Eh/α   predicted    -0.8527979E-04 ( -24.48%)
   displ. norm   :     0.6987102 α      lambda       -0.1498719E-03
   maximum displ.:     0.3637898 α      in ANC's #4, #5, #8, ...

........................................................................
.............................. CYCLE  240 ..............................
........................................................................

 iter      E             dE          RMSdq      gap      omega  full diag
   1   -364.2829184 -0.364283E+03  0.168E-02    2.77       0.0  T
   2   -364.2829194 -0.972188E-06  0.998E-03    2.77       1.0  T
   3   -364.2829172  0.217157E-05  0.356E-03    2.77       1.8  T
   4   -364.2829197 -0.247479E-05  0.840E-04    2.77       7.6  T
   5   -364.2829198 -0.104240E-06  0.328E-04    2.77      19.5  T
   6   -364.2829198 -0.258228E-08  0.152E-04    2.77      42.0  T
     SCC iter.                  ...        0 min,  0.287 sec
     gradient                   ...        0 min,  0.257 sec
 * total energy  :  -360.0647146 Eh     change       -0.1379600E-03 Eh
   gradient norm :     0.0018992 Eh/α   predicted    -0.1115295E-03 ( -19.16%)
   displ. norm   :     1.1101562 α      lambda       -0.1642594E-03
   maximum displ.:     0.5783875 α      in ANC's #4, #5, #8, ...

........................................................................
.............................. CYCLE  241 ..............................
........................................................................

 iter      E             dE          RMSdq      gap      omega  full diag
   1   -364.2824076 -0.364282E+03  0.271E-02    2.77       0.0  T
   2   -364.2824101 -0.251797E-05  0.161E-02    2.77       1.0  T
   3   -364.2824053  0.477878E-05  0.530E-03    2.77       1.2  T
   4   -364.2824107 -0.543806E-05  0.136E-03    2.77       4.7  T
   5   -364.2824110 -0.290146E-06  0.514E-04    2.77      12.4  T
   6   -364.2824110 -0.679699E-08  0.231E-04    2.77      27.7  T
     SCC iter.                  ...        0 min,  0.304 sec
     gradient                   ...        0 min,  0.257 sec
 * total energy  :  -360.0649344 Eh     change       -0.2198713E-03 Eh
   gradient norm :     0.0022554 Eh/α   predicted    -0.1271243E-03 ( -42.18%)
   displ. norm   :     0.7211472 α      lambda       -0.1648862E-03
   maximum displ.:     0.3763137 α      in ANC's #4, #5, #8, ...

........................................................................
.............................. CYCLE  242 ..............................
........................................................................

 iter      E             dE          RMSdq      gap      omega  full diag
   1   -364.2823062 -0.364282E+03  0.170E-02    2.78       0.0  T
   2   -364.2823073 -0.109856E-05  0.101E-02    2.77       1.0  T
   3   -364.2823058  0.147088E-05  0.302E-03    2.78       2.1  T
   4   -364.2823075 -0.166780E-05  0.901E-04    2.78       7.1  T
   5   -364.2823076 -0.139910E-06  0.322E-04    2.78      19.8  T
   6   -364.2823076 -0.347779E-08  0.144E-04    2.78      44.2  T
     SCC iter.                  ...        0 min,  0.294 sec
     gradient                   ...        0 min,  0.259 sec
 * total energy  :  -360.0650941 Eh     change       -0.1596202E-03 Eh
   gradient norm :     0.0025751 Eh/α   predicted    -0.1253243E-03 ( -21.49%)
   displ. norm   :     0.7499699 α      lambda       -0.2182760E-03
   maximum displ.:     0.3872167 α      in ANC's #4, #5, #8, ...

........................................................................
.............................. CYCLE  243 ..............................
........................................................................

 iter      E             dE          RMSdq      gap      omega  full diag
   1   -364.2831033 -0.364283E+03  0.189E-02    2.78       0.0  T
   2   -364.2831047 -0.144382E-05  0.112E-02    2.78       1.0  T
   3   -364.2831032  0.149473E-05  0.311E-03    2.78       2.1  T
   4   -364.2831049 -0.167976E-05  0.102E-03    2.78       6.3  T
   5   -364.2831051 -0.188931E-06  0.351E-04    2.78      18.2  T
   6   -364.2831051 -0.534487E-08  0.164E-04    2.78      38.9  T
     SCC iter.                  ...        0 min,  0.342 sec
     gradient                   ...        0 min,  0.257 sec
 * total energy  :  -360.0653028 Eh     change       -0.2087186E-03 Eh
   gradient norm :     0.0029363 Eh/α   predicted    -0.1705328E-03 ( -18.30%)
   displ. norm   :     0.7917855 α      lambda       -0.2724689E-03
   maximum displ.:     0.4010347 α      in ANC's #4, #8, #5, ...

........................................................................
.............................. CYCLE  244 ..............................
........................................................................

 iter      E             dE          RMSdq      gap      omega  full diag
   1   -364.2834319 -0.364283E+03  0.214E-02    2.78       0.0  T
   2   -364.2834338 -0.188315E-05  0.126E-02    2.78       1.0  T
   3   -364.2834321  0.166036E-05  0.335E-03    2.78       1.9  T
   4   -364.2834340 -0.184885E-05  0.119E-03    2.78       5.4  T
   5   -364.2834343 -0.260998E-06  0.397E-04    2.78      16.1  T
   6   -364.2834343 -0.748781E-08  0.189E-04    2.78      33.8  T
     SCC iter.                  ...        0 min,  1.429 sec
     gradient                   ...        0 min,  0.296 sec
 * total energy  :  -360.0655573 Eh     change       -0.2545595E-03 Eh
   gradient norm :     0.0029871 Eh/α   predicted    -0.2216535E-03 ( -12.93%)
   displ. norm   :     0.8034452 α      lambda       -0.2958236E-03
   maximum displ.:     0.3967095 α      in ANC's #4, #8, #5, ...

........................................................................
.............................. CYCLE  245 ..............................
........................................................................

 iter      E             dE          RMSdq      gap      omega  full diag
   1   -364.2836756 -0.364284E+03  0.234E-02    2.79       0.0  T
   2   -364.2836780 -0.238985E-05  0.138E-02    2.79       1.0  T
   3   -364.2836759  0.203951E-05  0.375E-03    2.79       1.7  T
   4   -364.2836782 -0.225778E-05  0.135E-03    2.79       4.7  T
   5   -364.2836785 -0.338165E-06  0.440E-04    2.79      14.5  T
   6   -364.2836786 -0.970851E-08  0.211E-04    2.79      30.3  T
     SCC iter.                  ...        0 min,  0.292 sec
     gradient                   ...        0 min,  0.258 sec
 * total energy  :  -360.0658292 Eh     change       -0.2718628E-03 Eh
   gradient norm :     0.0031038 Eh/α   predicted    -0.2434038E-03 ( -10.47%)
   displ. norm   :     0.8116105 α      lambda       -0.2999209E-03
   maximum displ.:     0.3969520 α      in ANC's #4, #8, #5, ...

........................................................................
.............................. CYCLE  246 ..............................
........................................................................

 iter      E             dE          RMSdq      gap      omega  full diag
   1   -364.2833512 -0.364283E+03  0.238E-02    2.79       0.0  T
   2   -364.2833539 -0.263731E-05  0.140E-02    2.79       1.0  T
   3   -364.2833520  0.190455E-05  0.374E-03    2.79       1.7  T
   4   -364.2833541 -0.211411E-05  0.138E-03    2.79       4.6  T
   5   -364.2833544 -0.359349E-06  0.453E-04    2.79      14.1  T
   6   -364.2833545 -0.115663E-07  0.219E-04    2.79      29.2  T
     SCC iter.                  ...        0 min,  0.291 sec
     gradient                   ...        0 min,  0.259 sec
 * total energy  :  -360.0661093 Eh     change       -0.2800597E-03 Eh
   gradient norm :     0.0031854 Eh/α   predicted    -0.2487536E-03 ( -11.18%)
   displ. norm   :     0.8002237 α      lambda       -0.3260304E-03
   maximum displ.:     0.3854228 α      in ANC's #4, #8, #5, ...

........................................................................
.............................. CYCLE  247 ..............................
........................................................................

 iter      E             dE          RMSdq      gap      omega  full diag
   1   -364.2834690 -0.364283E+03  0.243E-02    2.80       0.0  T
   2   -364.2834722 -0.313013E-05  0.142E-02    2.80       1.0  T
   3   -364.2834702  0.194670E-05  0.391E-03    2.80       1.6  T
   4   -364.2834724 -0.218012E-05  0.144E-03    2.80       4.4  T
   5   -364.2834728 -0.393117E-06  0.473E-04    2.80      13.5  T
   6   -364.2834728 -0.137252E-07  0.232E-04    2.80      27.5  T
     SCC iter.                  ...        0 min,  0.294 sec
     gradient                   ...        0 min,  0.260 sec
 * total energy  :  -360.0664153 Eh     change       -0.3060542E-03 Eh
   gradient norm :     0.0033289 Eh/α   predicted    -0.2674126E-03 ( -12.63%)
   displ. norm   :     0.7896213 α      lambda       -0.3733774E-03
   maximum displ.:     0.3742029 α      in ANC's #4, #8, #5, ...

........................................................................
.............................. CYCLE  248 ..............................
........................................................................

 iter      E             dE          RMSdq      gap      omega  full diag
   1   -364.2838537 -0.364284E+03  0.248E-02    2.80       0.0  T
   2   -364.2838575 -0.377318E-05  0.145E-02    2.80       1.0  T
   3   -364.2838552  0.224842E-05  0.431E-03    2.80       1.5  T
   4   -364.2838578 -0.253454E-05  0.157E-03    2.80       4.1  T
   5   -364.2838582 -0.459088E-06  0.502E-04    2.80      12.7  T
   6   -364.2838582 -0.151461E-07  0.250E-04    2.80      25.6  T
     SCC iter.                  ...        0 min,  0.289 sec
     gradient                   ...        0 min,  0.258 sec
 * total energy  :  -360.0667577 Eh     change       -0.3424193E-03 Eh
   gradient norm :     0.0036266 Eh/α   predicted    -0.3031013E-03 ( -11.48%)
   displ. norm   :     0.7891608 α      lambda       -0.3928190E-03
   maximum displ.:     0.3748878 α      in ANC's #4, #8, #5, ...

........................................................................
.............................. CYCLE  249 ..............................
........................................................................

 iter      E             dE          RMSdq      gap      omega  full diag
   1   -364.2841242 -0.364284E+03  0.242E-02    2.81       0.0  T
   2   -364.2841279 -0.371128E-05  0.142E-02    2.81       1.0  T
   3   -364.2841251  0.280570E-05  0.470E-03    2.81       1.4  T
   4   -364.2841283 -0.318524E-05  0.165E-03    2.81       3.9  T
   5   -364.2841288 -0.480582E-06  0.519E-04    2.81      12.3  T
   6   -364.2841288 -0.138227E-07  0.254E-04    2.81      25.2  T
     SCC iter.                  ...        0 min,  0.290 sec
     gradient                   ...        0 min,  0.258 sec
 * total energy  :  -360.0671081 Eh     change       -0.3503635E-03 Eh
   gradient norm :     0.0040555 Eh/α   predicted    -0.3187404E-03 (  -9.03%)
   displ. norm   :     0.7918001 α      lambda       -0.3705996E-03
   maximum displ.:     0.3850098 α      in ANC's #4, #8, #5, ...

........................................................................
.............................. CYCLE  250 ..............................
........................................................................

 iter      E             dE          RMSdq      gap      omega  full diag
   1   -364.2840935 -0.364284E+03  0.220E-02    2.81       0.0  T
   2   -364.2840967 -0.314909E-05  0.129E-02    2.81       1.0  T
   3   -364.2840938  0.284589E-05  0.467E-03    2.81       1.4  T
   4   -364.2840971 -0.326821E-05  0.156E-03    2.81       4.1  T
   5   -364.2840975 -0.416144E-06  0.497E-04    2.81      12.8  T
   6   -364.2840975 -0.121765E-07  0.231E-04    2.81      27.7  T
     SCC iter.                  ...        0 min,  0.289 sec
     gradient                   ...        0 min,  0.258 sec
 * total energy  :  -360.0674370 Eh     change       -0.3288489E-03 Eh
   gradient norm :     0.0042326 Eh/α   predicted    -0.3014873E-03 (  -8.32%)
   displ. norm   :     0.7701085 α      lambda       -0.3475235E-03
   maximum displ.:     0.3803190 α      in ANC's #4, #8, #5, ...

........................................................................
.............................. CYCLE  251 ..............................
........................................................................

 iter      E             dE          RMSdq      gap      omega  full diag
   1   -364.2847595 -0.364285E+03  0.207E-02    2.82       0.0  T
   2   -364.2847625 -0.304837E-05  0.121E-02    2.82       1.0  T
   3   -364.2847601  0.245361E-05  0.442E-03    2.82       1.4  T
   4   -364.2847629 -0.280750E-05  0.153E-03    2.82       4.2  T
   5   -364.2847633 -0.403795E-06  0.470E-04    2.82      13.6  T
   6   -364.2847633 -0.122751E-07  0.214E-04    2.82      29.9  T
     SCC iter.                  ...        0 min,  0.293 sec
     gradient                   ...        0 min,  0.260 sec
 * total energy  :  -360.0677419 Eh     change       -0.3049828E-03 Eh
   gradient norm :     0.0037368 Eh/α   predicted    -0.2768269E-03 (  -9.23%)
   displ. norm   :     0.7349270 α      lambda       -0.3236517E-03
   maximum displ.:     0.3656490 α      in ANC's #4, #8, #5, ...

........................................................................
.............................. CYCLE  252 ..............................
........................................................................

 iter      E             dE          RMSdq      gap      omega  full diag
   1   -364.2856435 -0.364286E+03  0.208E-02    2.82       0.0  T
   2   -364.2856466 -0.310080E-05  0.122E-02    2.82       1.0  T
   3   -364.2856447  0.181406E-05  0.391E-03    2.82       1.6  T
   4   -364.2856468 -0.202082E-05  0.149E-03    2.82       4.3  T
   5   -364.2856472 -0.394108E-06  0.439E-04    2.82      14.5  T
   6   -364.2856472 -0.127750E-07  0.205E-04    2.82      31.2  T
     SCC iter.                  ...        0 min,  0.290 sec
     gradient                   ...        0 min,  0.261 sec
 * total energy  :  -360.0680201 Eh     change       -0.2781281E-03 Eh
   gradient norm :     0.0030693 Eh/α   predicted    -0.2492436E-03 ( -10.39%)
   displ. norm   :     0.6925429 α      lambda       -0.2880840E-03
   maximum displ.:     0.3418489 α      in ANC's #4, #8, #5, ...

........................................................................
.............................. CYCLE  253 ..............................
........................................................................

 iter      E             dE          RMSdq      gap      omega  full diag
   1   -364.2865818 -0.364287E+03  0.216E-02    2.83       0.0  T
   2   -364.2865846 -0.286442E-05  0.127E-02    2.83       1.0  T
   3   -364.2865834  0.119643E-05  0.325E-03    2.83       2.0  T
   4   -364.2865848 -0.132367E-05  0.135E-03    2.83       4.7  T
   5   -364.2865851 -0.324074E-06  0.412E-04    2.83      15.5  T
   6   -364.2865851 -0.115573E-07  0.196E-04    2.83      32.7  T
     SCC iter.                  ...        0 min,  0.693 sec
     gradient                   ...        0 min,  0.858 sec
 * total energy  :  -360.0682612 Eh     change       -0.2411760E-03 Eh
   gradient norm :     0.0030519 Eh/α   predicted    -0.2131347E-03 ( -11.63%)
   displ. norm   :     0.6571546 α      lambda       -0.2417636E-03
   maximum displ.:     0.3186435 α      in ANC's #4, #8, #5, ...

........................................................................
.............................. CYCLE  254 ..............................
........................................................................

 iter      E             dE          RMSdq      gap      omega  full diag
   1   -364.2869584 -0.364287E+03  0.211E-02    2.83       0.0  T
   2   -364.2869604 -0.200469E-05  0.124E-02    2.83       1.0  T
   3   -364.2869597  0.706936E-06  0.253E-03    2.83       2.5  T
   4   -364.2869605 -0.837161E-06  0.110E-03    2.83       5.8  T
   5   -364.2869607 -0.203396E-06  0.383E-04    2.83      16.7  T
   6   -364.2869608 -0.951394E-08  0.175E-04    2.83      36.5  T
     SCC iter.                  ...        0 min,  0.302 sec
     gradient                   ...        0 min,  0.264 sec
 * total energy  :  -360.0684623 Eh     change       -0.2010200E-03 Eh
   gradient norm :     0.0034858 Eh/α   predicted    -0.1730951E-03 ( -13.89%)
   displ. norm   :     0.6022529 α      lambda       -0.2119649E-03
   maximum displ.:     0.2811947 α      in ANC's #8, #4, #5, ...

........................................................................
.............................. CYCLE  255 ..............................
........................................................................

 iter      E             dE          RMSdq      gap      omega  full diag
   1   -364.2883847 -0.364288E+03  0.211E-02    2.83       0.0  T
   2   -364.2883863 -0.160089E-05  0.125E-02    2.83       1.0  T
   3   -364.2883856  0.676447E-06  0.237E-03    2.84       2.7  T
   4   -364.2883864 -0.795384E-06  0.102E-03    2.84       6.2  T
   5   -364.2883866 -0.178375E-06  0.371E-04    2.84      17.2  T
   6   -364.2883866 -0.778510E-08  0.172E-04    2.84      37.2  T
     SCC iter.                  ...        0 min,  0.287 sec
     gradient                   ...        0 min,  0.262 sec
 * total energy  :  -360.0686353 Eh     change       -0.1730472E-03 Eh
   gradient norm :     0.0036384 Eh/α   predicted    -0.1444316E-03 ( -16.54%)
   displ. norm   :     0.6142185 α      lambda       -0.1970594E-03
   maximum displ.:     0.2913131 α      in ANC's #8, #4, #5, ...

........................................................................
.............................. CYCLE  256 ..............................
........................................................................

 iter      E             dE          RMSdq      gap      omega  full diag
   1   -364.2868609 -0.364287E+03  0.202E-02    2.83       0.0  T
   2   -364.2868624 -0.147037E-05  0.119E-02    2.84       1.0  T
   3   -364.2868618  0.588245E-06  0.228E-03    2.84       2.8  T
   4   -364.2868625 -0.722110E-06  0.993E-04    2.84       6.4  T
   5   -364.2868627 -0.164792E-06  0.389E-04    2.84      16.4  T
     SCC iter.                  ...        0 min,  0.248 sec
     gradient                   ...        0 min,  0.263 sec
 * total energy  :  -360.0687895 Eh     change       -0.1541630E-03 Eh
   gradient norm :     0.0039009 Eh/α   predicted    -0.1357061E-03 ( -11.97%)
   displ. norm   :     0.5479715 α      lambda       -0.2110739E-03
   maximum displ.:     0.2376725 α      in ANC's #8, #4, #5, ...

........................................................................
.............................. CYCLE  257 ..............................
........................................................................

 iter      E             dE          RMSdq      gap      omega  full diag
   1   -364.2900475 -0.364290E+03  0.229E-02    2.83       0.0  T
   2   -364.2900493 -0.172614E-05  0.136E-02    2.83       1.0  T
   3   -364.2900482  0.107864E-05  0.285E-03    2.83       2.2  T
   4   -364.2900495 -0.134087E-05  0.101E-03    2.83       6.3  T
   5   -364.2900497 -0.160910E-06  0.439E-04    2.83      14.5  T
   6   -364.2900497 -0.107906E-07  0.179E-04    2.83      35.7  T
     SCC iter.                  ...        0 min,  0.296 sec
     gradient                   ...        0 min,  0.264 sec
 * total energy  :  -360.0689277 Eh     change       -0.1381769E-03 Eh
   gradient norm :     0.0048708 Eh/α   predicted    -0.1372335E-03 (  -0.68%)
   displ. norm   :     0.4935999 α      lambda       -0.1564697E-03
   maximum displ.:     0.2391268 α      in ANC's #8, #4, #5, ...

........................................................................
.............................. CYCLE  258 ..............................
........................................................................

 iter      E             dE          RMSdq      gap      omega  full diag
   1   -364.2885587 -0.364289E+03  0.168E-02    2.83       0.0  T
   2   -364.2885603 -0.154764E-05  0.995E-03    2.83       1.0  T
   3   -364.2885599  0.423053E-06  0.210E-03    2.83       3.0  T
   4   -364.2885604 -0.493498E-06  0.927E-04    2.83       6.9  T
   5   -364.2885605 -0.156058E-06  0.335E-04    2.83      19.1  T
     SCC iter.                  ...        0 min,  0.247 sec
     gradient                   ...        0 min,  0.267 sec
 * total energy  :  -360.0690504 Eh     change       -0.1227652E-03 Eh
   gradient norm :     0.0031841 Eh/α   predicted    -0.9729855E-04 ( -20.74%)
   displ. norm   :     0.4889094 α      lambda       -0.1665161E-03
   maximum displ.:     0.2327517 α      in ANC's #8, #4, #5, ...
 * RMSD in coord.:     1.3209269 α      energy gain  -0.5840458E-02 Eh

generating ANC from exact Hessian ...
Using Lindh-Hessian (1995)
 Shifting diagonal of input Hessian by    1.0046484280895319E-002
 Lowest  eigenvalues of input Hessian
    0.010000    0.010020    0.010027    0.010040    0.000000    0.000000
    0.000000    0.000000    0.000000    0.000000    0.010052    0.010073
    0.010102    0.010122    0.010145    0.010162    0.010193    0.010224
 Highest eigenvalues
    2.332312    2.340863    2.355783    2.384023    2.392737    2.399019


........................................................................
.............................. CYCLE  259 ..............................
........................................................................

 iter      E             dE          RMSdq      gap      omega  full diag
   1   -364.2880912 -0.364288E+03  0.192E-02    2.83       0.0  T
   2   -364.2880920 -0.887441E-06  0.114E-02    2.83       1.0  T
   3   -364.2880907  0.133744E-05  0.289E-03    2.83       2.2  T
   4   -364.2880923 -0.161171E-05  0.765E-04    2.83       8.4  T
   5   -364.2880924 -0.713779E-07  0.362E-04    2.83      17.7  T
   6   -364.2880924 -0.540462E-08  0.150E-04    2.83      42.6  T
     SCC iter.                  ...        0 min,  0.295 sec
     gradient                   ...        0 min,  0.264 sec
 * total energy  :  -360.0691817 Eh     change       -0.1313105E-03 Eh
   gradient norm :     0.0043544 Eh/α   predicted     0.0000000E+00 (-100.00%)
   displ. norm   :     0.0511870 α      lambda       -0.5517869E-04
   maximum displ.:     0.0158914 α      in ANC's #7, #5, #23, ...

........................................................................
.............................. CYCLE  260 ..............................
........................................................................

 iter      E             dE          RMSdq      gap      omega  full diag
   1   -364.2888255 -0.364289E+03  0.520E-03    2.83       0.0  T
   2   -364.2888259 -0.397248E-06  0.308E-03    2.83       2.1  T
   3   -364.2888258  0.120672E-06  0.122E-03    2.83       5.2  T
   4   -364.2888259 -0.138871E-06  0.492E-04    2.83      13.0  T
   5   -364.2888259 -0.428975E-07  0.132E-04    2.83      48.5  T
     SCC iter.                  ...        0 min,  0.241 sec
     gradient                   ...        0 min,  0.263 sec
 * total energy  :  -360.0692328 Eh     change       -0.5108595E-04 Eh
   gradient norm :     0.0019385 Eh/α   predicted    -0.3105240E-04 ( -39.22%)
   displ. norm   :     0.2571651 α      lambda       -0.1295569E-03
   maximum displ.:     0.0844273 α      in ANC's #7, #5, #23, ...

........................................................................
.............................. CYCLE  261 ..............................
........................................................................

 iter      E             dE          RMSdq      gap      omega  full diag
   1   -364.2899302 -0.364290E+03  0.218E-02    2.83       0.0  T
   2   -364.2899346 -0.440593E-05  0.129E-02    2.83       1.0  T
   3   -364.2899329  0.169216E-05  0.420E-03    2.83       1.5  T
   4   -364.2899348 -0.194954E-05  0.166E-03    2.83       3.8  T
   5   -364.2899353 -0.483031E-06  0.515E-04    2.83      12.4  T
   6   -364.2899353 -0.145532E-07  0.265E-04    2.83      24.2  T
     SCC iter.                  ...        0 min,  0.293 sec
     gradient                   ...        0 min,  0.263 sec
 * total energy  :  -360.0693289 Eh     change       -0.9613025E-04 Eh
   gradient norm :     0.0058773 Eh/α   predicted    -0.6668292E-04 ( -30.63%)
   displ. norm   :     0.0752898 α      lambda       -0.4572983E-04
   maximum displ.:     0.0282865 α      in ANC's #7, #5, #8, ...

........................................................................
.............................. CYCLE  262 ..............................
........................................................................

 iter      E             dE          RMSdq      gap      omega  full diag
   1   -364.2895976 -0.364290E+03  0.509E-03    2.82       0.0  T
   2   -364.2895977 -0.144876E-06  0.304E-03    2.82       2.1  T
   3   -364.2895974  0.282609E-06  0.134E-03    2.82       4.8  T
   4   -364.2895977 -0.325510E-06  0.304E-04    2.82      21.0  T
   5   -364.2895978 -0.141663E-07  0.109E-04    2.82      58.8  T
     SCC iter.                  ...        0 min,  0.247 sec
     gradient                   ...        0 min,  1.094 sec
 * total energy  :  -360.0693696 Eh     change       -0.4070445E-04 Eh
   gradient norm :     0.0041630 Eh/α   predicted    -0.2299489E-04 ( -43.51%)
   displ. norm   :     0.3120757 α      lambda       -0.1570367E-03
   maximum displ.:     0.1181737 α      in ANC's #7, #5, #8, ...

........................................................................
.............................. CYCLE  263 ..............................
........................................................................

 iter      E             dE          RMSdq      gap      omega  full diag
   1   -364.2880873 -0.364288E+03  0.197E-02    2.82       0.0  T
   2   -364.2880889 -0.161140E-05  0.118E-02    2.82       1.0  T
   3   -364.2880849  0.407963E-05  0.495E-03    2.82       1.3  T
   4   -364.2880895 -0.467503E-05  0.103E-03    2.82       6.2  T
   5   -364.2880897 -0.151534E-06  0.402E-04    2.82      15.9  T
   6   -364.2880897 -0.446329E-08  0.198E-04    2.82      32.3  T
     SCC iter.                  ...        0 min,  0.427 sec
     gradient                   ...        0 min,  0.300 sec
 * total energy  :  -360.0694718 Eh     change       -0.1021550E-03 Eh
   gradient norm :     0.0031404 Eh/α   predicted    -0.8616550E-04 ( -15.65%)
   displ. norm   :     0.2131626 α      lambda       -0.5506168E-04
   maximum displ.:     0.0849661 α      in ANC's #7, #5, #8, ...

........................................................................
.............................. CYCLE  264 ..............................
........................................................................

 iter      E             dE          RMSdq      gap      omega  full diag
   1   -364.2876848 -0.364288E+03  0.121E-02    2.82       0.0  T
   2   -364.2876853 -0.492102E-06  0.720E-03    2.82       1.0  T
   3   -364.2876838  0.154262E-05  0.300E-03    2.81       2.1  T
   4   -364.2876855 -0.175857E-05  0.579E-04    2.81      11.0  T
   5   -364.2876856 -0.467899E-07  0.240E-04    2.81      26.6  T
   6   -364.2876856 -0.102460E-08  0.112E-04    2.81      56.9  T
     SCC iter.                  ...        0 min,  0.288 sec
     gradient                   ...        0 min,  0.260 sec
 * total energy  :  -360.0695153 Eh     change       -0.4349547E-04 Eh
   gradient norm :     0.0040341 Eh/α   predicted    -0.2878210E-04 ( -33.83%)
   displ. norm   :     0.2731504 α      lambda       -0.7368350E-04
   maximum displ.:     0.1130434 α      in ANC's #7, #5, #8, ...

........................................................................
.............................. CYCLE  265 ..............................
........................................................................

 iter      E             dE          RMSdq      gap      omega  full diag
   1   -364.2879912 -0.364288E+03  0.145E-02    2.81       0.0  T
   2   -364.2879920 -0.743546E-06  0.861E-03    2.81       1.0  T
   3   -364.2879898  0.217161E-05  0.357E-03    2.81       1.8  T
   4   -364.2879923 -0.247069E-05  0.712E-04    2.81       9.0  T
   5   -364.2879924 -0.737980E-07  0.284E-04    2.81      22.5  T
   6   -364.2879924 -0.107423E-08  0.133E-04    2.81      47.9  T
     SCC iter.                  ...        0 min,  0.287 sec
     gradient                   ...        0 min,  0.260 sec
 * total energy  :  -360.0695741 Eh     change       -0.5878156E-04 Eh
   gradient norm :     0.0033948 Eh/α   predicted    -0.3959164E-04 ( -32.65%)
   displ. norm   :     0.3048532 α      lambda       -0.7933189E-04
   maximum displ.:     0.1315888 α      in ANC's #7, #5, #8, ...

........................................................................
.............................. CYCLE  266 ..............................
........................................................................

 iter      E             dE          RMSdq      gap      omega  full diag
   1   -364.2887174 -0.364289E+03  0.154E-02    2.81       0.0  T
   2   -364.2887183 -0.884863E-06  0.915E-03    2.81       1.0  T
   3   -364.2887156  0.264881E-05  0.397E-03    2.81       1.6  T
   4   -364.2887186 -0.302261E-05  0.759E-04    2.81       8.4  T
   5   -364.2887187 -0.799890E-07  0.303E-04    2.81      21.1  T
   6   -364.2887187 -0.859188E-09  0.148E-04    2.81      43.1  T
     SCC iter.                  ...        0 min,  0.287 sec
     gradient                   ...        0 min,  0.259 sec
 * total energy  :  -360.0696345 Eh     change       -0.6042233E-04 Eh
   gradient norm :     0.0022410 Eh/α   predicted    -0.4335701E-04 ( -28.24%)
   displ. norm   :     0.2815936 α      lambda       -0.6232983E-04
   maximum displ.:     0.1260228 α      in ANC's #7, #5, #8, ...

........................................................................
.............................. CYCLE  267 ..............................
........................................................................

 iter      E             dE          RMSdq      gap      omega  full diag
   1   -364.2892559 -0.364289E+03  0.138E-02    2.81       0.0  T
   2   -364.2892565 -0.591035E-06  0.826E-03    2.81       1.0  T
   3   -364.2892542  0.231501E-05  0.367E-03    2.81       1.7  T
   4   -364.2892568 -0.264656E-05  0.602E-04    2.81      10.6  T
   5   -364.2892569 -0.403641E-07  0.268E-04    2.81      23.8  T
   6   -364.2892569 -0.553712E-09  0.140E-04    2.81      45.7  T
     SCC iter.                  ...        0 min,  0.308 sec
     gradient                   ...        0 min,  0.263 sec
 * total energy  :  -360.0696840 Eh     change       -0.4948009E-04 Eh
   gradient norm :     0.0023773 Eh/α   predicted    -0.3363921E-04 ( -32.01%)
   displ. norm   :     0.2979651 α      lambda       -0.6727497E-04
   maximum displ.:     0.1357699 α      in ANC's #7, #5, #8, ...

........................................................................
.............................. CYCLE  268 ..............................
........................................................................

 iter      E             dE          RMSdq      gap      omega  full diag
   1   -364.2896416 -0.364290E+03  0.146E-02    2.81       0.0  T
   2   -364.2896423 -0.632539E-06  0.871E-03    2.81       1.0  T
   3   -364.2896398  0.247530E-05  0.378E-03    2.81       1.7  T
   4   -364.2896426 -0.282800E-05  0.614E-04    2.81      10.4  T
   5   -364.2896427 -0.408390E-07  0.280E-04    2.81      22.9  T
   6   -364.2896427 -0.858790E-09  0.153E-04    2.81      41.8  T
     SCC iter.                  ...        0 min,  0.295 sec
     gradient                   ...        0 min,  0.263 sec
 * total energy  :  -360.0697399 Eh     change       -0.5592136E-04 Eh
   gradient norm :     0.0028842 Eh/α   predicted    -0.3662462E-04 ( -34.51%)
   displ. norm   :     0.3762750 α      lambda       -0.9129998E-04
   maximum displ.:     0.1710713 α      in ANC's #7, #5, #8, ...

........................................................................
.............................. CYCLE  269 ..............................
........................................................................

 iter      E             dE          RMSdq      gap      omega  full diag
   1   -364.2895862 -0.364290E+03  0.188E-02    2.80       0.0  T
   2   -364.2895871 -0.941006E-06  0.112E-02    2.81       1.0  T
   3   -364.2895835  0.359832E-05  0.454E-03    2.81       1.4  T
   4   -364.2895876 -0.410987E-05  0.761E-04    2.81       8.4  T
   5   -364.2895877 -0.632113E-07  0.357E-04    2.81      17.9  T
   6   -364.2895877 -0.194728E-08  0.193E-04    2.81      33.1  T
     SCC iter.                  ...        0 min,  0.291 sec
     gradient                   ...        0 min,  0.262 sec
 * total energy  :  -360.0698154 Eh     change       -0.7554274E-04 Eh
   gradient norm :     0.0030251 Eh/α   predicted    -0.5211908E-04 ( -31.01%)
   displ. norm   :     0.4308600 α      lambda       -0.1056133E-03
   maximum displ.:     0.1936583 α      in ANC's #7, #5, #8, ...

........................................................................
.............................. CYCLE  270 ..............................
........................................................................

 iter      E             dE          RMSdq      gap      omega  full diag
   1   -364.2891061 -0.364289E+03  0.217E-02    2.81       0.0  T
   2   -364.2891071 -0.100650E-05  0.129E-02    2.81       1.0  T
   3   -364.2891032  0.394274E-05  0.472E-03    2.81       1.4  T
   4   -364.2891077 -0.451200E-05  0.808E-04    2.81       7.9  T
   5   -364.2891078 -0.673044E-07  0.399E-04    2.81      16.0  T
   6   -364.2891078 -0.235269E-08  0.206E-04    2.81      31.0  T
     SCC iter.                  ...        0 min,  0.290 sec
     gradient                   ...        0 min,  0.261 sec
 * total energy  :  -360.0699002 Eh     change       -0.8474624E-04 Eh
   gradient norm :     0.0028583 Eh/α   predicted    -0.6261486E-04 ( -26.11%)
   displ. norm   :     0.4208368 α      lambda       -0.9808823E-04
   maximum displ.:     0.1871044 α      in ANC's #7, #5, #8, ...

........................................................................
.............................. CYCLE  271 ..............................
........................................................................

 iter      E             dE          RMSdq      gap      omega  full diag
   1   -364.2887385 -0.364289E+03  0.206E-02    2.81       0.0  T
   2   -364.2887392 -0.752588E-06  0.122E-02    2.81       1.0  T
   3   -364.2887364  0.278939E-05  0.397E-03    2.81       1.6  T
   4   -364.2887396 -0.321808E-05  0.735E-04    2.81       8.7  T
   5   -364.2887397 -0.554383E-07  0.372E-04    2.81      17.2  T
   6   -364.2887397 -0.211924E-08  0.174E-04    2.81      36.8  T
     SCC iter.                  ...        0 min,  0.290 sec
     gradient                   ...        0 min,  0.261 sec
 * total energy  :  -360.0699778 Eh     change       -0.7763748E-04 Eh
   gradient norm :     0.0026355 Eh/α   predicted    -0.5773097E-04 ( -25.64%)
   displ. norm   :     0.3987718 α      lambda       -0.8694555E-04
   maximum displ.:     0.1777210 α      in ANC's #7, #5, #8, ...

........................................................................
.............................. CYCLE  272 ..............................
........................................................................

 iter      E             dE          RMSdq      gap      omega  full diag
   1   -364.2886538 -0.364289E+03  0.179E-02    2.81       0.0  T
   2   -364.2886544 -0.621809E-06  0.106E-02    2.81       1.0  T
   3   -364.2886527  0.168859E-05  0.312E-03    2.81       2.0  T
   4   -364.2886547 -0.196110E-05  0.680E-04    2.81       9.4  T
   5   -364.2886548 -0.575972E-07  0.320E-04    2.81      20.0  T
   6   -364.2886548 -0.226856E-08  0.140E-04    2.81      45.5  T
     SCC iter.                  ...        0 min,  0.292 sec
     gradient                   ...        0 min,  0.263 sec
 * total energy  :  -360.0700481 Eh     change       -0.7022661E-04 Eh
   gradient norm :     0.0025087 Eh/α   predicted    -0.5038624E-04 ( -28.25%)
   displ. norm   :     0.4036593 α      lambda       -0.8832260E-04
   maximum displ.:     0.1799482 α      in ANC's #7, #5, #8, ...

........................................................................
.............................. CYCLE  273 ..............................
........................................................................

 iter      E             dE          RMSdq      gap      omega  full diag
   1   -364.2890086 -0.364289E+03  0.162E-02    2.81       0.0  T
   2   -364.2890095 -0.924138E-06  0.962E-03    2.81       1.0  T
   3   -364.2890085  0.996080E-06  0.258E-03    2.81       2.5  T
   4   -364.2890097 -0.115851E-05  0.796E-04    2.81       8.0  T
   5   -364.2890098 -0.106190E-06  0.306E-04    2.81      20.9  T
   6   -364.2890098 -0.431208E-08  0.143E-04    2.81      44.5  T
     SCC iter.                  ...        0 min,  0.293 sec
     gradient                   ...        0 min,  0.262 sec
 * total energy  :  -360.0701209 Eh     change       -0.7279571E-04 Eh
   gradient norm :     0.0025413 Eh/α   predicted    -0.5136178E-04 ( -29.44%)
   displ. norm   :     0.4563339 α      lambda       -0.9915392E-04
   maximum displ.:     0.2036850 α      in ANC's #7, #5, #8, ...

........................................................................
.............................. CYCLE  274 ..............................
........................................................................

 iter      E             dE          RMSdq      gap      omega  full diag
   1   -364.2892097 -0.364289E+03  0.166E-02    2.82       0.0  T
   2   -364.2892111 -0.141203E-05  0.984E-03    2.81       1.0  T
   3   -364.2892102  0.861464E-06  0.262E-03    2.82       2.4  T
   4   -364.2892112 -0.997043E-06  0.928E-04    2.82       6.9  T
   5   -364.2892114 -0.157744E-06  0.332E-04    2.82      19.2  T
     SCC iter.                  ...        0 min,  0.248 sec
     gradient                   ...        0 min,  0.262 sec
 * total energy  :  -360.0702042 Eh     change       -0.8338082E-04 Eh
   gradient norm :     0.0027895 Eh/α   predicted    -0.5990635E-04 ( -28.15%)
   displ. norm   :     0.4967219 α      lambda       -0.1123409E-03
   maximum displ.:     0.2199948 α      in ANC's #5, #7, #8, ...

........................................................................
.............................. CYCLE  275 ..............................
........................................................................

 iter      E             dE          RMSdq      gap      omega  full diag
   1   -364.2898365 -0.364290E+03  0.172E-02    2.82       0.0  T
   2   -364.2898384 -0.189867E-05  0.102E-02    2.82       1.0  T
   3   -364.2898378  0.559276E-06  0.253E-03    2.82       2.5  T
   4   -364.2898386 -0.721107E-06  0.929E-04    2.82       6.9  T
   5   -364.2898387 -0.145194E-06  0.372E-04    2.82      17.2  T
     SCC iter.                  ...        0 min,  0.241 sec
     gradient                   ...        0 min,  0.262 sec
 * total energy  :  -360.0702976 Eh     change       -0.9331934E-04 Eh
   gradient norm :     0.0032994 Eh/α   predicted    -0.7003447E-04 ( -24.95%)
   displ. norm   :     0.5482285 α      lambda       -0.1157068E-03
   maximum displ.:     0.2457017 α      in ANC's #5, #7, #8, ...

........................................................................
.............................. CYCLE  276 ..............................
........................................................................

 iter      E             dE          RMSdq      gap      omega  full diag
   1   -364.2890707 -0.364289E+03  0.187E-02    2.82       0.0  T
   2   -364.2890725 -0.181709E-05  0.110E-02    2.82       1.0  T
   3   -364.2890717  0.870880E-06  0.276E-03    2.82       2.3  T
   4   -364.2890727 -0.100207E-05  0.107E-03    2.82       6.0  T
   5   -364.2890729 -0.205812E-06  0.371E-04    2.82      17.2  T
   6   -364.2890729 -0.673185E-08  0.171E-04    2.82      37.4  T
     SCC iter.                  ...        0 min,  0.287 sec
     gradient                   ...        0 min,  0.262 sec
 * total energy  :  -360.0703915 Eh     change       -0.9395289E-04 Eh
   gradient norm :     0.0031880 Eh/α   predicted    -0.7524188E-04 ( -19.92%)
   displ. norm   :     0.5183865 α      lambda       -0.1102030E-03
   maximum displ.:     0.2321073 α      in ANC's #5, #8, #7, ...

........................................................................
.............................. CYCLE  277 ..............................
........................................................................

 iter      E             dE          RMSdq      gap      omega  full diag
   1   -364.2905889 -0.364291E+03  0.183E-02    2.82       0.0  T
   2   -364.2905909 -0.196446E-05  0.108E-02    2.82       1.0  T
   3   -364.2905905  0.411252E-06  0.236E-03    2.82       2.7  T
   4   -364.2905911 -0.564985E-06  0.991E-04    2.82       6.4  T
   5   -364.2905912 -0.151063E-06  0.390E-04    2.82      16.4  T
     SCC iter.                  ...        0 min,  0.246 sec
     gradient                   ...        0 min,  0.264 sec
 * total energy  :  -360.0704720 Eh     change       -0.8053032E-04 Eh
   gradient norm :     0.0037953 Eh/α   predicted    -0.6992434E-04 ( -13.17%)
   displ. norm   :     0.5276013 α      lambda       -0.9096209E-04
   maximum displ.:     0.2414887 α      in ANC's #5, #7, #8, ...

........................................................................
.............................. CYCLE  278 ..............................
........................................................................

 iter      E             dE          RMSdq      gap      omega  full diag
   1   -364.2885349 -0.364289E+03  0.181E-02    2.82       0.0  T
   2   -364.2885361 -0.116827E-05  0.107E-02    2.82       1.0  T
   3   -364.2885352  0.886490E-06  0.251E-03    2.82       2.5  T
   4   -364.2885362 -0.998971E-06  0.920E-04    2.82       6.9  T
   5   -364.2885363 -0.144231E-06  0.313E-04    2.82      20.4  T
     SCC iter.                  ...        0 min,  0.245 sec
     gradient                   ...        0 min,  0.263 sec
 * total energy  :  -360.0705391 Eh     change       -0.6710497E-04 Eh
   gradient norm :     0.0030038 Eh/α   predicted    -0.5814156E-04 ( -13.36%)
   displ. norm   :     0.4299506 α      lambda       -0.7508635E-04
   maximum displ.:     0.1988136 α      in ANC's #5, #8, #7, ...

........................................................................
.............................. CYCLE  279 ..............................
........................................................................

 iter      E             dE          RMSdq      gap      omega  full diag
   1   -364.2893256 -0.364289E+03  0.148E-02    2.82       0.0  T
   2   -364.2893265 -0.944427E-06  0.879E-03    2.82       1.0  T
   3   -364.2893260  0.496368E-06  0.201E-03    2.82       3.2  T
   4   -364.2893266 -0.569099E-06  0.773E-04    2.82       8.3  T
   5   -364.2893267 -0.100314E-06  0.263E-04    2.82      24.3  T
     SCC iter.                  ...        0 min,  0.244 sec
     gradient                   ...        0 min,  0.263 sec
 * total energy  :  -360.0706008 Eh     change       -0.6165523E-04 Eh
   gradient norm :     0.0025409 Eh/α   predicted    -0.4448559E-04 ( -27.85%)
   displ. norm   :     0.4917589 α      lambda       -0.9134138E-04
   maximum displ.:     0.2290651 α      in ANC's #5, #8, #7, ...

........................................................................
.............................. CYCLE  280 ..............................
........................................................................

 iter      E             dE          RMSdq      gap      omega  full diag
   1   -364.2898690 -0.364290E+03  0.181E-02    2.83       0.0  T
   2   -364.2898699 -0.915837E-06  0.108E-02    2.83       1.0  T
   3   -364.2898686  0.130036E-05  0.286E-03    2.83       2.2  T
   4   -364.2898701 -0.149226E-05  0.781E-04    2.83       8.2  T
   5   -364.2898702 -0.935992E-07  0.298E-04    2.83      21.4  T
   6   -364.2898702 -0.233575E-08  0.140E-04    2.83      45.6  T
     SCC iter.                  ...        0 min,  0.289 sec
     gradient                   ...        0 min,  0.262 sec
 * total energy  :  -360.0706758 Eh     change       -0.7498142E-04 Eh
   gradient norm :     0.0029930 Eh/α   predicted    -0.5671701E-04 ( -24.36%)
   displ. norm   :     0.5130556 α      lambda       -0.9642525E-04
   maximum displ.:     0.2427192 α      in ANC's #5, #8, #7, ...

........................................................................
.............................. CYCLE  281 ..............................
........................................................................

 iter      E             dE          RMSdq      gap      omega  full diag
   1   -364.2905848 -0.364291E+03  0.195E-02    2.83       0.0  T
   2   -364.2905856 -0.802204E-06  0.116E-02    2.83       1.0  T
   3   -364.2905839  0.178996E-05  0.322E-03    2.83       2.0  T
   4   -364.2905859 -0.204896E-05  0.723E-04    2.83       8.8  T
   5   -364.2905860 -0.714936E-07  0.303E-04    2.83      21.1  T
   6   -364.2905860 -0.138135E-08  0.139E-04    2.83      45.9  T
     SCC iter.                  ...        0 min,  0.288 sec
     gradient                   ...        0 min,  0.261 sec
 * total energy  :  -360.0707523 Eh     change       -0.7647974E-04 Eh
   gradient norm :     0.0032696 Eh/α   predicted    -0.6090650E-04 ( -20.36%)
   displ. norm   :     0.5439210 α      lambda       -0.8791268E-04
   maximum displ.:     0.2592771 α      in ANC's #5, #8, #7, ...

........................................................................
.............................. CYCLE  282 ..............................
........................................................................

 iter      E             dE          RMSdq      gap      omega  full diag
   1   -364.2902488 -0.364290E+03  0.207E-02    2.83       0.0  T
   2   -364.2902496 -0.840578E-06  0.124E-02    2.83       1.0  T
   3   -364.2902472  0.239432E-05  0.366E-03    2.83       1.7  T
   4   -364.2902499 -0.273907E-05  0.728E-04    2.83       8.8  T
   5   -364.2902500 -0.644183E-07  0.330E-04    2.83      19.4  T
   6   -364.2902500 -0.135418E-08  0.156E-04    2.83      41.0  T
     SCC iter.                  ...        0 min,  0.289 sec
     gradient                   ...        0 min,  0.262 sec
 * total energy  :  -360.0708234 Eh     change       -0.7111689E-04 Eh
   gradient norm :     0.0030887 Eh/α   predicted    -0.5696455E-04 ( -19.90%)
   displ. norm   :     0.5097267 α      lambda       -0.8820031E-04
   maximum displ.:     0.2463544 α      in ANC's #5, #8, #7, ...

........................................................................
.............................. CYCLE  283 ..............................
........................................................................

 iter      E             dE          RMSdq      gap      omega  full diag
   1   -364.2911535 -0.364291E+03  0.198E-02    2.83       0.0  T
   2   -364.2911545 -0.104229E-05  0.118E-02    2.83       1.0  T
   3   -364.2911523  0.221663E-05  0.356E-03    2.83       1.8  T
   4   -364.2911548 -0.250288E-05  0.833E-04    2.83       7.7  T
   5   -364.2911549 -0.106715E-06  0.327E-04    2.83      19.5  T
   6   -364.2911549 -0.200447E-08  0.166E-04    2.83      38.5  T
     SCC iter.                  ...        0 min,  0.287 sec
     gradient                   ...        0 min,  0.263 sec
 * total energy  :  -360.0708934 Eh     change       -0.7005496E-04 Eh
   gradient norm :     0.0026555 Eh/α   predicted    -0.5556125E-04 ( -20.69%)
   displ. norm   :     0.5189435 α      lambda       -0.8293948E-04
   maximum displ.:     0.2534226 α      in ANC's #5, #8, #7, ...

........................................................................
.............................. CYCLE  284 ..............................
........................................................................

 iter      E             dE          RMSdq      gap      omega  full diag
   1   -364.2909234 -0.364291E+03  0.197E-02    2.83       0.0  T
   2   -364.2909248 -0.133166E-05  0.118E-02    2.83       1.0  T
   3   -364.2909227  0.209762E-05  0.356E-03    2.83       1.8  T
   4   -364.2909250 -0.234881E-05  0.976E-04    2.83       6.5  T
   5   -364.2909252 -0.161006E-06  0.349E-04    2.83      18.3  T
   6   -364.2909252 -0.310251E-08  0.180E-04    2.83      35.6  T
     SCC iter.                  ...        0 min,  0.286 sec
     gradient                   ...        0 min,  0.262 sec
 * total energy  :  -360.0709609 Eh     change       -0.6751846E-04 Eh
   gradient norm :     0.0023169 Eh/α   predicted    -0.5264118E-04 ( -22.03%)
   displ. norm   :     0.4822319 α      lambda       -0.7956500E-04
   maximum displ.:     0.2376352 α      in ANC's #5, #8, #7, ...

........................................................................
.............................. CYCLE  285 ..............................
........................................................................

 iter      E             dE          RMSdq      gap      omega  full diag
   1   -364.2915239 -0.364292E+03  0.189E-02    2.83       0.0  T
   2   -364.2915255 -0.155274E-05  0.113E-02    2.83       1.0  T
   3   -364.2915236  0.191257E-05  0.349E-03    2.83       1.8  T
   4   -364.2915257 -0.212052E-05  0.108E-03    2.83       5.9  T
   5   -364.2915259 -0.211769E-06  0.364E-04    2.83      17.5  T
   6   -364.2915259 -0.388746E-08  0.186E-04    2.83      34.3  T
     SCC iter.                  ...        0 min,  0.287 sec
     gradient                   ...        0 min,  0.262 sec
 * total energy  :  -360.0710249 Eh     change       -0.6395805E-04 Eh
   gradient norm :     0.0027767 Eh/α   predicted    -0.4903531E-04 ( -23.33%)
   displ. norm   :     0.4855602 α      lambda       -0.7333126E-04
   maximum displ.:     0.2419230 α      in ANC's #5, #8, #2, ...

........................................................................
.............................. CYCLE  286 ..............................
........................................................................

 iter      E             dE          RMSdq      gap      omega  full diag
   1   -364.2914003 -0.364291E+03  0.190E-02    2.83       0.0  T
   2   -364.2914019 -0.159152E-05  0.113E-02    2.83       1.0  T
   3   -364.2914000  0.183728E-05  0.345E-03    2.83       1.9  T
   4   -364.2914021 -0.205325E-05  0.109E-03    2.83       5.9  T
   5   -364.2914023 -0.213365E-06  0.378E-04    2.83      16.9  T
   6   -364.2914023 -0.436313E-08  0.193E-04    2.83      33.1  T
     SCC iter.                  ...        0 min,  0.287 sec
     gradient                   ...        0 min,  0.262 sec
 * total energy  :  -360.0710854 Eh     change       -0.6048201E-04 Eh
   gradient norm :     0.0031263 Eh/α   predicted    -0.4531361E-04 ( -25.08%)
   displ. norm   :     0.4838553 α      lambda       -0.7463600E-04
   maximum displ.:     0.2429786 α      in ANC's #5, #8, #2, ...

........................................................................
.............................. CYCLE  287 ..............................
........................................................................

 iter      E             dE          RMSdq      gap      omega  full diag
   1   -364.2914894 -0.364291E+03  0.195E-02    2.83       0.0  T
   2   -364.2914912 -0.178854E-05  0.116E-02    2.83       1.0  T
   3   -364.2914892  0.194154E-05  0.358E-03    2.83       1.8  T
   4   -364.2914914 -0.220139E-05  0.114E-03    2.83       5.6  T
   5   -364.2914917 -0.230382E-06  0.410E-04    2.83      15.6  T
   6   -364.2914917 -0.530792E-08  0.206E-04    2.83      31.0  T
     SCC iter.                  ...        0 min,  0.287 sec
     gradient                   ...        0 min,  0.263 sec
 * total energy  :  -360.0711469 Eh     change       -0.6154417E-04 Eh
   gradient norm :     0.0030454 Eh/α   predicted    -0.4606071E-04 ( -25.16%)
   displ. norm   :     0.4971543 α      lambda       -0.7553177E-04
   maximum displ.:     0.2510867 α      in ANC's #5, #8, #2, ...

........................................................................
.............................. CYCLE  288 ..............................
........................................................................

 iter      E             dE          RMSdq      gap      omega  full diag
   1   -364.2916251 -0.364292E+03  0.206E-02    2.83       0.0  T
   2   -364.2916269 -0.187685E-05  0.122E-02    2.83       1.0  T
   3   -364.2916247  0.227485E-05  0.383E-03    2.83       1.7  T
   4   -364.2916273 -0.262434E-05  0.115E-03    2.83       5.6  T
   5   -364.2916275 -0.222664E-06  0.441E-04    2.83      14.5  T
   6   -364.2916275 -0.580695E-08  0.216E-04    2.83      29.5  T
     SCC iter.                  ...        0 min,  0.287 sec
     gradient                   ...        0 min,  0.262 sec
 * total energy  :  -360.0712086 Eh     change       -0.6168067E-04 Eh
   gradient norm :     0.0027613 Eh/α   predicted    -0.4710575E-04 ( -23.63%)
   displ. norm   :     0.4886552 α      lambda       -0.7535718E-04
   maximum displ.:     0.2483294 α      in ANC's #5, #8, #2, ...

........................................................................
.............................. CYCLE  289 ..............................
........................................................................

 iter      E             dE          RMSdq      gap      omega  full diag
   1   -364.2912930 -0.364291E+03  0.209E-02    2.83       0.0  T
   2   -364.2912950 -0.194638E-05  0.124E-02    2.83       1.0  T
   3   -364.2912929  0.209242E-05  0.376E-03    2.84       1.7  T
   4   -364.2912953 -0.247928E-05  0.117E-03    2.84       5.5  T
   5   -364.2912956 -0.220529E-06  0.467E-04    2.84      13.7  T
   6   -364.2912956 -0.670701E-08  0.217E-04    2.84      29.4  T
     SCC iter.                  ...        0 min,  0.287 sec
     gradient                   ...        0 min,  0.262 sec
 * total energy  :  -360.0712681 Eh     change       -0.5949342E-04 Eh
   gradient norm :     0.0026961 Eh/α   predicted    -0.4667806E-04 ( -21.54%)
   displ. norm   :     0.4858934 α      lambda       -0.7200534E-04
   maximum displ.:     0.2485565 α      in ANC's #5, #8, #2, ...

........................................................................
.............................. CYCLE  290 ..............................
........................................................................

 iter      E             dE          RMSdq      gap      omega  full diag
   1   -364.2919544 -0.364292E+03  0.214E-02    2.84       0.0  T
   2   -364.2919565 -0.210253E-05  0.126E-02    2.84       1.0  T
   3   -364.2919542  0.224241E-05  0.391E-03    2.84       1.6  T
   4   -364.2919569 -0.265066E-05  0.122E-03    2.84       5.3  T
   5   -364.2919571 -0.245512E-06  0.477E-04    2.84      13.4  T
   6   -364.2919572 -0.722724E-08  0.220E-04    2.84      29.0  T
     SCC iter.                  ...        0 min,  0.287 sec
     gradient                   ...        0 min,  0.262 sec
 * total energy  :  -360.0713242 Eh     change       -0.5610351E-04 Eh
   gradient norm :     0.0027075 Eh/α   predicted    -0.4450740E-04 ( -20.67%)
   displ. norm   :     0.4458902 α      lambda       -0.7070536E-04
   maximum displ.:     0.2312532 α      in ANC's #5, #8, #2, ...

........................................................................
.............................. CYCLE  291 ..............................
........................................................................

 iter      E             dE          RMSdq      gap      omega  full diag
   1   -364.2917957 -0.364292E+03  0.206E-02    2.84       0.0  T
   2   -364.2917982 -0.247743E-05  0.120E-02    2.84       1.0  T
   3   -364.2917966  0.161404E-05  0.363E-03    2.84       1.8  T
   4   -364.2917985 -0.197364E-05  0.127E-03    2.84       5.0  T
   5   -364.2917988 -0.275520E-06  0.482E-04    2.84      13.3  T
   6   -364.2917988 -0.948643E-08  0.229E-04    2.84      28.0  T
     SCC iter.                  ...        0 min,  0.287 sec
     gradient                   ...        0 min,  0.263 sec
 * total energy  :  -360.0713780 Eh     change       -0.5380162E-04 Eh
   gradient norm :     0.0028267 Eh/α   predicted    -0.4238694E-04 ( -21.22%)
   displ. norm   :     0.4399068 α      lambda       -0.6894233E-04
   maximum displ.:     0.2311005 α      in ANC's #5, #2, #8, ...

........................................................................
.............................. CYCLE  292 ..............................
........................................................................

 iter      E             dE          RMSdq      gap      omega  full diag
   1   -364.2918829 -0.364292E+03  0.199E-02    2.84       0.0  T
   2   -364.2918854 -0.252185E-05  0.116E-02    2.84       1.0  T
   3   -364.2918840  0.142287E-05  0.350E-03    2.84       1.8  T
   4   -364.2918857 -0.170328E-05  0.128E-03    2.84       5.0  T
   5   -364.2918860 -0.290459E-06  0.453E-04    2.84      14.1  T
   6   -364.2918860 -0.970113E-08  0.222E-04    2.84      28.8  T
     SCC iter.                  ...        0 min,  0.286 sec
     gradient                   ...        0 min,  0.262 sec
 * total energy  :  -360.0714301 Eh     change       -0.5204913E-04 Eh
   gradient norm :     0.0027405 Eh/α   predicted    -0.4114540E-04 ( -20.95%)
   displ. norm   :     0.3854404 α      lambda       -0.6520181E-04
   maximum displ.:     0.2044098 α      in ANC's #5, #2, #8, ...

........................................................................
.............................. CYCLE  293 ..............................
........................................................................

 iter      E             dE          RMSdq      gap      omega  full diag
   1   -364.2928960 -0.364293E+03  0.187E-02    2.85       0.0  T
   2   -364.2928988 -0.278189E-05  0.109E-02    2.84       1.0  T
   3   -364.2928974  0.134983E-05  0.354E-03    2.84       1.8  T
   4   -364.2928990 -0.159316E-05  0.136E-03    2.84       4.7  T
   5   -364.2928994 -0.334377E-06  0.448E-04    2.84      14.3  T
   6   -364.2928994 -0.962757E-08  0.226E-04    2.84      28.3  T
     SCC iter.                  ...        0 min,  0.287 sec
     gradient                   ...        0 min,  0.263 sec
 * total energy  :  -360.0714783 Eh     change       -0.4828867E-04 Eh
   gradient norm :     0.0024505 Eh/α   predicted    -0.3744811E-04 ( -22.45%)
   displ. norm   :     0.3657678 α      lambda       -0.5765741E-04
   maximum displ.:     0.1963102 α      in ANC's #5, #2, #8, ...

........................................................................
.............................. CYCLE  294 ..............................
........................................................................

 iter      E             dE          RMSdq      gap      omega  full diag
   1   -364.2918237 -0.364292E+03  0.163E-02    2.84       0.0  T
   2   -364.2918256 -0.188846E-05  0.953E-03    2.84       1.0  T
   3   -364.2918245  0.109608E-05  0.309E-03    2.84       2.1  T
   4   -364.2918258 -0.125826E-05  0.116E-03    2.84       5.5  T
   5   -364.2918260 -0.241255E-06  0.367E-04    2.84      17.4  T
   6   -364.2918260 -0.713214E-08  0.185E-04    2.84      34.6  T
     SCC iter.                  ...        0 min,  0.286 sec
     gradient                   ...        0 min,  0.264 sec
 * total energy  :  -360.0715208 Eh     change       -0.4240339E-04 Eh
   gradient norm :     0.0024247 Eh/α   predicted    -0.3268837E-04 ( -22.91%)
   displ. norm   :     0.3303796 α      lambda       -0.5518502E-04
   maximum displ.:     0.1776612 α      in ANC's #5, #2, #8, ...

........................................................................
.............................. CYCLE  295 ..............................
........................................................................

 iter      E             dE          RMSdq      gap      omega  full diag
   1   -364.2928209 -0.364293E+03  0.165E-02    2.84       0.0  T
   2   -364.2928231 -0.224432E-05  0.961E-03    2.84       1.0  T
   3   -364.2928225  0.639844E-06  0.270E-03    2.84       2.4  T
   4   -364.2928232 -0.736544E-06  0.120E-03    2.84       5.3  T
   5   -364.2928235 -0.265561E-06  0.390E-04    2.84      16.4  T
   6   -364.2928235 -0.765829E-08  0.202E-04    2.84      31.7  T
     SCC iter.                  ...        0 min,  0.287 sec
     gradient                   ...        0 min,  0.263 sec
 * total energy  :  -360.0715600 Eh     change       -0.3929119E-04 Eh
   gradient norm :     0.0029320 Eh/α   predicted    -0.3060527E-04 ( -22.11%)
   displ. norm   :     0.2871772 α      lambda       -0.4953907E-04
   maximum displ.:     0.1565956 α      in ANC's #5, #2, #8, ...

........................................................................
.............................. CYCLE  296 ..............................
........................................................................

 iter      E             dE          RMSdq      gap      omega  full diag
   1   -364.2931930 -0.364293E+03  0.133E-02    2.84       0.0  T
   2   -364.2931941 -0.105065E-05  0.781E-03    2.84       1.0  T
   3   -364.2931936  0.405767E-06  0.204E-03    2.84       3.1  T
   4   -364.2931942 -0.529987E-06  0.751E-04    2.84       8.5  T
   5   -364.2931943 -0.902668E-07  0.307E-04    2.84      20.8  T
     SCC iter.                  ...        0 min,  0.240 sec
     gradient                   ...        0 min,  0.263 sec
 * total energy  :  -360.0715967 Eh     change       -0.3660797E-04 Eh
   gradient norm :     0.0024226 Eh/α   predicted    -0.2681641E-04 ( -26.75%)
   displ. norm   :     0.3307937 α      lambda       -0.5253780E-04
   maximum displ.:     0.1806941 α      in ANC's #5, #2, #8, ...

........................................................................
.............................. CYCLE  297 ..............................
........................................................................

 iter      E             dE          RMSdq      gap      omega  full diag
   1   -364.2919788 -0.364292E+03  0.165E-02    2.84       0.0  T
   2   -364.2919803 -0.148115E-05  0.973E-03    2.84       1.0  T
   3   -364.2919801  0.213084E-06  0.181E-03    2.84       3.5  T
   4   -364.2919804 -0.322865E-06  0.915E-04    2.84       7.0  T
   5   -364.2919806 -0.143148E-06  0.357E-04    2.84      17.9  T
     SCC iter.                  ...        0 min,  0.239 sec
     gradient                   ...        0 min,  0.262 sec
 * total energy  :  -360.0716337 Eh     change       -0.3703198E-04 Eh
   gradient norm :     0.0033633 Eh/α   predicted    -0.2914516E-04 ( -21.30%)
   displ. norm   :     0.2966934 α      lambda       -0.5873754E-04
   maximum displ.:     0.1594294 α      in ANC's #5, #2, #3, ...

........................................................................
.............................. CYCLE  298 ..............................
........................................................................

 iter      E             dE          RMSdq      gap      omega  full diag
   1   -364.2936720 -0.364294E+03  0.146E-02    2.84       0.0  T
   2   -364.2936730 -0.101875E-05  0.864E-03    2.84       1.0  T
   3   -364.2936724  0.522204E-06  0.220E-03    2.84       2.9  T
   4   -364.2936732 -0.732799E-06  0.671E-04    2.84       9.5  T
   5   -364.2936732 -0.602780E-07  0.336E-04    2.84      19.0  T
     SCC iter.                  ...        0 min,  0.245 sec
     gradient                   ...        0 min,  0.263 sec
 * total energy  :  -360.0716715 Eh     change       -0.3783165E-04 Eh
   gradient norm :     0.0029544 Eh/α   predicted    -0.3195598E-04 ( -15.53%)
   displ. norm   :     0.3152109 α      lambda       -0.4938406E-04
   maximum displ.:     0.1726061 α      in ANC's #5, #2, #3, ...
 * RMSD in coord.:     0.9033622 α      energy gain  -0.2621098E-02 Eh

generating ANC from exact Hessian ...
Using Lindh-Hessian (1995)
 Shifting diagonal of input Hessian by    1.0048049582977647E-002
 Lowest  eigenvalues of input Hessian
    0.010000    0.010020    0.010029    0.010044    0.000000    0.000000
    0.000000    0.000000    0.000000    0.000000    0.010053    0.010079
    0.010098    0.010125    0.010153    0.010166    0.010197    0.010227
 Highest eigenvalues
    2.335959    2.340232    2.359377    2.368602    2.392031    2.396030


........................................................................
.............................. CYCLE  299 ..............................
........................................................................

 iter      E             dE          RMSdq      gap      omega  full diag
   1   -364.2931849 -0.364293E+03  0.158E-02    2.84       0.0  T
   2   -364.2931860 -0.113772E-05  0.929E-03    2.84       1.0  T
   3   -364.2931856  0.401994E-06  0.198E-03    2.84       3.2  T
   4   -364.2931861 -0.524296E-06  0.869E-04    2.84       7.4  T
   5   -364.2931863 -0.127038E-06  0.340E-04    2.84      18.8  T
     SCC iter.                  ...        0 min,  0.240 sec
     gradient                   ...        0 min,  0.263 sec
 * total energy  :  -360.0717088 Eh     change       -0.3728524E-04 Eh
   gradient norm :     0.0027619 Eh/α   predicted     0.0000000E+00 (-100.00%)
   displ. norm   :     0.0294476 α      lambda       -0.2231837E-04
   maximum displ.:     0.0074698 α      in ANC's #2, #92, #5, ...

........................................................................
.............................. CYCLE  300 ..............................
........................................................................

 iter      E             dE          RMSdq      gap      omega  full diag
   1   -364.2929150 -0.364293E+03  0.295E-03    2.84       0.0  T
   2   -364.2929151 -0.130250E-06  0.172E-03    2.84       3.7  T
   3   -364.2929151  0.437324E-07  0.737E-04    2.84       8.7  T
   4   -364.2929151 -0.530337E-07  0.264E-04    2.84      24.2  T
     SCC iter.                  ...        0 min,  0.192 sec
     gradient                   ...        0 min,  0.263 sec
 * total energy  :  -360.0717276 Eh     change       -0.1883246E-04 Eh
   gradient norm :     0.0013780 Eh/α   predicted    -0.1163172E-04 ( -38.24%)
   displ. norm   :     0.1239364 α      lambda       -0.3507758E-04
   maximum displ.:     0.0351044 α      in ANC's #2, #5, #7, ...

........................................................................
.............................. CYCLE  301 ..............................
........................................................................

 iter      E             dE          RMSdq      gap      omega  full diag
   1   -364.2923839 -0.364292E+03  0.991E-03    2.84       0.0  T
   2   -364.2923850 -0.105012E-05  0.582E-03    2.84       1.1  T
   3   -364.2923844  0.541633E-06  0.228E-03    2.84       2.8  T
   4   -364.2923850 -0.618387E-06  0.786E-04    2.84       8.1  T
   5   -364.2923851 -0.112456E-06  0.224E-04    2.84      28.5  T
     SCC iter.                  ...        0 min,  0.240 sec
     gradient                   ...        0 min,  0.263 sec
 * total energy  :  -360.0717526 Eh     change       -0.2496367E-04 Eh
   gradient norm :     0.0026029 Eh/α   predicted    -0.1910178E-04 ( -23.48%)
   displ. norm   :     0.0256583 α      lambda       -0.8872185E-05
   maximum displ.:     0.0090634 α      in ANC's #2, #5, #7, ...

........................................................................
.............................. CYCLE  302 ..............................
........................................................................

 iter      E             dE          RMSdq      gap      omega  full diag
   1   -364.2926023 -0.364293E+03  0.180E-03    2.84       0.0  T
   2   -364.2926024 -0.236460E-07  0.107E-03    2.84       6.0  T
   3   -364.2926024  0.105456E-07  0.309E-04    2.84      20.7  T
   4   -364.2926024 -0.129654E-07  0.111E-04    2.84      57.6  T
     SCC iter.                  ...        0 min,  0.192 sec
     gradient                   ...        0 min,  0.262 sec
 * total energy  :  -360.0717620 Eh     change       -0.9404510E-05 Eh
   gradient norm :     0.0018359 Eh/α   predicted    -0.5310261E-05 ( -43.53%)
   displ. norm   :     0.2110608 α      lambda       -0.4095386E-04
   maximum displ.:     0.0747811 α      in ANC's #2, #7, #5, ...

........................................................................
.............................. CYCLE  303 ..............................
........................................................................

 iter      E             dE          RMSdq      gap      omega  full diag
   1   -364.2933963 -0.364293E+03  0.130E-02    2.84       0.0  T
   2   -364.2933970 -0.733782E-06  0.772E-03    2.84       1.0  T
   3   -364.2933962  0.752903E-06  0.221E-03    2.84       2.9  T
   4   -364.2933971 -0.868695E-06  0.698E-04    2.84       9.2  T
   5   -364.2933972 -0.790960E-07  0.249E-04    2.84      25.7  T
     SCC iter.                  ...        0 min,  0.240 sec
     gradient                   ...        0 min,  0.263 sec
 * total energy  :  -360.0717899 Eh     change       -0.2785249E-04 Eh
   gradient norm :     0.0028865 Eh/α   predicted    -0.2100566E-04 ( -24.58%)
   displ. norm   :     0.0498360 α      lambda       -0.1221887E-04
   maximum displ.:     0.0192765 α      in ANC's #2, #7, #5, ...

........................................................................
.............................. CYCLE  304 ..............................
........................................................................

 iter      E             dE          RMSdq      gap      omega  full diag
   1   -364.2932235 -0.364293E+03  0.297E-03    2.84       0.0  T
   2   -364.2932235 -0.398210E-07  0.176E-03    2.84       3.6  T
   3   -364.2932235  0.355001E-07  0.512E-04    2.84      12.5  T
   4   -364.2932235 -0.411244E-07  0.164E-04    2.84      38.9  T
     SCC iter.                  ...        0 min,  0.193 sec
     gradient                   ...        0 min,  0.263 sec
 * total energy  :  -360.0718008 Eh     change       -0.1095012E-04 Eh
   gradient norm :     0.0021218 Eh/α   predicted    -0.6128779E-05 ( -44.03%)
   displ. norm   :     0.2129057 α      lambda       -0.4491165E-04
   maximum displ.:     0.0834262 α      in ANC's #2, #7, #5, ...

........................................................................
.............................. CYCLE  305 ..............................
........................................................................

 iter      E             dE          RMSdq      gap      omega  full diag
   1   -364.2925654 -0.364293E+03  0.123E-02    2.83       0.0  T
   2   -364.2925660 -0.580027E-06  0.727E-03    2.83       1.0  T
   3   -364.2925654  0.612466E-06  0.207E-03    2.83       3.1  T
   4   -364.2925661 -0.701151E-06  0.649E-04    2.83       9.8  T
   5   -364.2925662 -0.680367E-07  0.228E-04    2.83      28.0  T
     SCC iter.                  ...        0 min,  0.240 sec
     gradient                   ...        0 min,  0.262 sec
 * total energy  :  -360.0718309 Eh     change       -0.3009482E-04 Eh
   gradient norm :     0.0011729 Eh/α   predicted    -0.2347526E-04 ( -22.00%)
   displ. norm   :     0.2656655 α      lambda       -0.1903874E-04
   maximum displ.:     0.1069902 α      in ANC's #2, #7, #5, ...

........................................................................
.............................. CYCLE  306 ..............................
........................................................................

 iter      E             dE          RMSdq      gap      omega  full diag
   1   -364.2920280 -0.364292E+03  0.146E-02    2.83       0.0  T
   2   -364.2920284 -0.488272E-06  0.868E-03    2.83       1.0  T
   3   -364.2920277  0.785172E-06  0.223E-03    2.83       2.9  T
   4   -364.2920286 -0.920369E-06  0.609E-04    2.83      10.5  T
   5   -364.2920286 -0.505176E-07  0.257E-04    2.83      24.8  T
     SCC iter.                  ...        0 min,  0.239 sec
     gradient                   ...        0 min,  0.265 sec
 * total energy  :  -360.0718510 Eh     change       -0.2011827E-04 Eh
   gradient norm :     0.0023281 Eh/α   predicted    -0.9818685E-05 ( -51.20%)
   displ. norm   :     0.1510546 α      lambda       -0.1937143E-04
   maximum displ.:     0.0633274 α      in ANC's #2, #7, #5, ...

........................................................................
.............................. CYCLE  307 ..............................
........................................................................

 iter      E             dE          RMSdq      gap      omega  full diag
   1   -364.2923673 -0.364292E+03  0.811E-03    2.83       0.0  T
   2   -364.2923675 -0.111623E-06  0.483E-03    2.83       1.3  T
   3   -364.2923673  0.196474E-06  0.112E-03    2.83       5.7  T
   4   -364.2923675 -0.240094E-06  0.291E-04    2.83      22.0  T
   5   -364.2923675 -0.876781E-08  0.144E-04    2.83      44.3  T
     SCC iter.                  ...        0 min,  0.241 sec
     gradient                   ...        0 min,  0.263 sec
 * total energy  :  -360.0718683 Eh     change       -0.1727270E-04 Eh
   gradient norm :     0.0018395 Eh/α   predicted    -0.9918406E-05 ( -42.58%)
   displ. norm   :     0.4536568 α      lambda       -0.4160477E-04
   maximum displ.:     0.1936291 α      in ANC's #2, #7, #5, ...

........................................................................
.............................. CYCLE  308 ..............................
........................................................................

 iter      E             dE          RMSdq      gap      omega  full diag
   1   -364.2931040 -0.364293E+03  0.241E-02    2.82       0.0  T
   2   -364.2931049 -0.919471E-06  0.143E-02    2.82       1.0  T
   3   -364.2931030  0.194009E-05  0.342E-03    2.82       1.9  T
   4   -364.2931053 -0.234182E-05  0.851E-04    2.82       7.5  T
   5   -364.2931054 -0.715815E-07  0.425E-04    2.82      15.0  T
   6   -364.2931054 -0.342470E-08  0.170E-04    2.82      37.6  T
     SCC iter.                  ...        0 min,  0.286 sec
     gradient                   ...        0 min,  0.263 sec
 * total energy  :  -360.0719080 Eh     change       -0.3970582E-04 Eh
   gradient norm :     0.0012501 Eh/α   predicted    -0.2270960E-04 ( -42.81%)
   displ. norm   :     0.2433736 α      lambda       -0.1624160E-04
   maximum displ.:     0.1077995 α      in ANC's #2, #7, #5, ...

........................................................................
.............................. CYCLE  309 ..............................
........................................................................

 iter      E             dE          RMSdq      gap      omega  full diag
   1   -364.2932394 -0.364293E+03  0.124E-02    2.82       0.0  T
   2   -364.2932396 -0.272667E-06  0.739E-03    2.82       1.0  T
   3   -364.2932390  0.601892E-06  0.188E-03    2.82       3.4  T
   4   -364.2932397 -0.714914E-06  0.468E-04    2.82      13.7  T
   5   -364.2932398 -0.247864E-07  0.227E-04    2.82      28.2  T
     SCC iter.                  ...        0 min,  0.239 sec
     gradient                   ...        0 min,  0.262 sec
 * total energy  :  -360.0719279 Eh     change       -0.1990066E-04 Eh
   gradient norm :     0.0013231 Eh/α   predicted    -0.8337838E-05 ( -58.10%)
   displ. norm   :     0.3388421 α      lambda       -0.2920575E-04
   maximum displ.:     0.1520177 α      in ANC's #2, #7, #5, ...

........................................................................
.............................. CYCLE  310 ..............................
........................................................................

 iter      E             dE          RMSdq      gap      omega  full diag
   1   -364.2939177 -0.364294E+03  0.167E-02    2.81       0.0  T
   2   -364.2939183 -0.535547E-06  0.996E-03    2.81       1.0  T
   3   -364.2939170  0.130719E-05  0.274E-03    2.81       2.3  T
   4   -364.2939185 -0.154974E-05  0.641E-04    2.81      10.0  T
   5   -364.2939186 -0.432854E-07  0.320E-04    2.81      20.0  T
   6   -364.2939186 -0.264680E-08  0.131E-04    2.81      48.8  T
     SCC iter.                  ...        0 min,  0.287 sec
     gradient                   ...        0 min,  0.262 sec
 * total energy  :  -360.0719611 Eh     change       -0.3317120E-04 Eh
   gradient norm :     0.0013311 Eh/α   predicted    -0.1535171E-04 ( -53.72%)
   displ. norm   :     0.3819871 α      lambda       -0.2807600E-04
   maximum displ.:     0.1745011 α      in ANC's #2, #7, #5, ...

........................................................................
.............................. CYCLE  311 ..............................
........................................................................

 iter      E             dE          RMSdq      gap      omega  full diag
   1   -364.2929640 -0.364293E+03  0.189E-02    2.81       0.0  T
   2   -364.2929648 -0.754961E-06  0.112E-02    2.81       1.0  T
   3   -364.2929630  0.176826E-05  0.317E-03    2.81       2.0  T
   4   -364.2929651 -0.207747E-05  0.744E-04    2.81       8.6  T
   5   -364.2929651 -0.642244E-07  0.355E-04    2.81      18.0  T
   6   -364.2929651 -0.270870E-08  0.150E-04    2.81      42.5  T
     SCC iter.                  ...        0 min,  0.287 sec
     gradient                   ...        0 min,  0.264 sec
 * total energy  :  -360.0719908 Eh     change       -0.2969016E-04 Eh
   gradient norm :     0.0014086 Eh/α   predicted    -0.1495046E-04 ( -49.65%)
   displ. norm   :     0.2839269 α      lambda       -0.1885082E-04
   maximum displ.:     0.1324398 α      in ANC's #2, #7, #5, ...

........................................................................
.............................. CYCLE  312 ..............................
........................................................................

 iter      E             dE          RMSdq      gap      omega  full diag
   1   -364.2931120 -0.364293E+03  0.139E-02    2.81       0.0  T
   2   -364.2931125 -0.493166E-06  0.824E-03    2.81       1.0  T
   3   -364.2931114  0.112822E-05  0.253E-03    2.81       2.5  T
   4   -364.2931127 -0.130650E-05  0.597E-04    2.81      10.7  T
   5   -364.2931127 -0.465887E-07  0.267E-04    2.81      24.0  T
   6   -364.2931127 -0.196144E-08  0.120E-04    2.81      53.1  T
     SCC iter.                  ...        0 min,  0.287 sec
     gradient                   ...        0 min,  0.263 sec
 * total energy  :  -360.0720129 Eh     change       -0.2214191E-04 Eh
   gradient norm :     0.0011528 Eh/α   predicted    -0.9767256E-05 ( -55.89%)
   displ. norm   :     0.3100187 α      lambda       -0.2246741E-04
   maximum displ.:     0.1476165 α      in ANC's #2, #5, #7, ...

........................................................................
.............................. CYCLE  313 ..............................
........................................................................

 iter      E             dE          RMSdq      gap      omega  full diag
   1   -364.2930263 -0.364293E+03  0.153E-02    2.80       0.0  T
   2   -364.2930270 -0.686298E-06  0.912E-03    2.80       1.0  T
   3   -364.2930254  0.158290E-05  0.302E-03    2.80       2.1  T
   4   -364.2930273 -0.181923E-05  0.696E-04    2.80       9.2  T
   5   -364.2930273 -0.676856E-07  0.298E-04    2.80      21.5  T
   6   -364.2930273 -0.224918E-08  0.138E-04    2.80      46.2  T
     SCC iter.                  ...        0 min,  0.287 sec
     gradient                   ...        0 min,  0.262 sec
 * total energy  :  -360.0720388 Eh     change       -0.2588791E-04 Eh
   gradient norm :     0.0010928 Eh/α   predicted    -0.1171631E-04 ( -54.74%)
   displ. norm   :     0.3265251 α      lambda       -0.2300801E-04
   maximum displ.:     0.1583532 α      in ANC's #2, #5, #7, ...

........................................................................
.............................. CYCLE  314 ..............................
........................................................................

 iter      E             dE          RMSdq      gap      omega  full diag
   1   -364.2927103 -0.364293E+03  0.167E-02    2.80       0.0  T
   2   -364.2927112 -0.900610E-06  0.990E-03    2.80       1.0  T
   3   -364.2927092  0.200408E-05  0.342E-03    2.80       1.9  T
   4   -364.2927115 -0.228747E-05  0.795E-04    2.80       8.0  T
   5   -364.2927116 -0.942321E-07  0.323E-04    2.80      19.8  T
   6   -364.2927116 -0.273036E-08  0.155E-04    2.80      41.1  T
     SCC iter.                  ...        0 min,  0.287 sec
     gradient                   ...        0 min,  0.263 sec
 * total energy  :  -360.0720627 Eh     change       -0.2392749E-04 Eh
   gradient norm :     0.0012792 Eh/α   predicted    -0.1205298E-04 ( -49.63%)
   displ. norm   :     0.2617601 α      lambda       -0.1722293E-04
   maximum displ.:     0.1298214 α      in ANC's #2, #5, #7, ...

........................................................................
.............................. CYCLE  315 ..............................
........................................................................

 iter      E             dE          RMSdq      gap      omega  full diag
   1   -364.2929170 -0.364293E+03  0.129E-02    2.79       0.0  T
   2   -364.2929174 -0.352807E-06  0.766E-03    2.79       1.0  T
   3   -364.2929160  0.140123E-05  0.279E-03    2.79       2.3  T
   4   -364.2929176 -0.161352E-05  0.487E-04    2.79      13.1  T
   5   -364.2929176 -0.230419E-07  0.248E-04    2.79      25.8  T
   6   -364.2929176 -0.113323E-08  0.101E-04    2.79      63.0  T
     SCC iter.                  ...        0 min,  0.288 sec
     gradient                   ...        0 min,  0.263 sec
 * total energy  :  -360.0720804 Eh     change       -0.1763752E-04 Eh
   gradient norm :     0.0011971 Eh/α   predicted    -0.8877202E-05 ( -49.67%)
   displ. norm   :     0.2050881 α      lambda       -0.1343072E-04
   maximum displ.:     0.1044921 α      in ANC's #2, #5, #7, ...

........................................................................
.............................. CYCLE  316 ..............................
........................................................................

 iter      E             dE          RMSdq      gap      omega  full diag
   1   -364.2929126 -0.364293E+03  0.100E-02    2.79       0.0  T
   2   -364.2929128 -0.191757E-06  0.596E-03    2.79       1.1  T
   3   -364.2929122  0.606112E-06  0.184E-03    2.79       3.5  T
   4   -364.2929129 -0.704388E-06  0.361E-04    2.79      17.7  T
   5   -364.2929129 -0.123625E-07  0.181E-04    2.79      35.3  T
     SCC iter.                  ...        0 min,  0.240 sec
     gradient                   ...        0 min,  0.263 sec
 * total energy  :  -360.0720959 Eh     change       -0.1556177E-04 Eh
   gradient norm :     0.0008836 Eh/α   predicted    -0.6843966E-05 ( -56.02%)
   displ. norm   :     0.2116578 α      lambda       -0.1567448E-04
   maximum displ.:     0.1095504 α      in ANC's #2, #5, #7, ...

........................................................................
.............................. CYCLE  317 ..............................
........................................................................

 iter      E             dE          RMSdq      gap      omega  full diag
   1   -364.2932961 -0.364293E+03  0.998E-03    2.79       0.0  T
   2   -364.2932963 -0.183974E-06  0.594E-03    2.79       1.1  T
   3   -364.2932959  0.399453E-06  0.153E-03    2.79       4.2  T
   4   -364.2932964 -0.475137E-06  0.365E-04    2.79      17.5  T
   5   -364.2932964 -0.137708E-07  0.179E-04    2.79      35.7  T
     SCC iter.                  ...        0 min,  0.240 sec
     gradient                   ...        0 min,  0.262 sec
 * total energy  :  -360.0721134 Eh     change       -0.1747101E-04 Eh
   gradient norm :     0.0009049 Eh/α   predicted    -0.7997931E-05 ( -54.22%)
   displ. norm   :     0.2186713 α      lambda       -0.1396468E-04
   maximum displ.:     0.1156162 α      in ANC's #2, #5, #4, ...

........................................................................
.............................. CYCLE  318 ..............................
........................................................................

 iter      E             dE          RMSdq      gap      omega  full diag
   1   -364.2930902 -0.364293E+03  0.102E-02    2.79       0.0  T
   2   -364.2930903 -0.187150E-06  0.608E-03    2.79       1.1  T
   3   -364.2930901  0.238434E-06  0.125E-03    2.79       5.1  T
   4   -364.2930904 -0.295741E-06  0.386E-04    2.79      16.6  T
   5   -364.2930904 -0.180871E-07  0.178E-04    2.79      35.8  T
     SCC iter.                  ...        0 min,  0.240 sec
     gradient                   ...        0 min,  0.263 sec
 * total energy  :  -360.0721287 Eh     change       -0.1529077E-04 Eh
   gradient norm :     0.0010709 Eh/α   predicted    -0.7135664E-05 ( -53.33%)
   displ. norm   :     0.1979301 α      lambda       -0.1213592E-04
   maximum displ.:     0.1056120 α      in ANC's #2, #5, #4, ...

........................................................................
.............................. CYCLE  319 ..............................
........................................................................

 iter      E             dE          RMSdq      gap      omega  full diag
   1   -364.2933940 -0.364293E+03  0.917E-03    2.79       0.0  T
   2   -364.2933942 -0.172789E-06  0.545E-03    2.79       1.2  T
   3   -364.2933939  0.357021E-06  0.147E-03    2.79       4.3  T
   4   -364.2933943 -0.415096E-06  0.356E-04    2.79      18.0  T
   5   -364.2933943 -0.162328E-07  0.156E-04    2.79      40.9  T
     SCC iter.                  ...        0 min,  0.240 sec
     gradient                   ...        0 min,  0.264 sec
 * total energy  :  -360.0721425 Eh     change       -0.1377903E-04 Eh
   gradient norm :     0.0010088 Eh/α   predicted    -0.6177359E-05 ( -55.17%)
   displ. norm   :     0.2074573 α      lambda       -0.1245414E-04
   maximum displ.:     0.1127418 α      in ANC's #2, #5, #4, ...

........................................................................
.............................. CYCLE  320 ..............................
........................................................................

 iter      E             dE          RMSdq      gap      omega  full diag
   1   -364.2932860 -0.364293E+03  0.968E-03    2.79       0.0  T
   2   -364.2932862 -0.240910E-06  0.576E-03    2.79       1.1  T
   3   -364.2932859  0.301655E-06  0.141E-03    2.79       4.5  T
   4   -364.2932863 -0.354852E-06  0.421E-04    2.79      15.2  T
   5   -364.2932863 -0.258283E-07  0.170E-04    2.79      37.5  T
     SCC iter.                  ...        0 min,  0.240 sec
     gradient                   ...        0 min,  0.263 sec
 * total energy  :  -360.0721566 Eh     change       -0.1413407E-04 Eh
   gradient norm :     0.0008580 Eh/α   predicted    -0.6347487E-05 ( -55.09%)
   displ. norm   :     0.2067305 α      lambda       -0.1204469E-04
   maximum displ.:     0.1141133 α      in ANC's #2, #5, #4, ...

........................................................................
.............................. CYCLE  321 ..............................
........................................................................

 iter      E             dE          RMSdq      gap      omega  full diag
   1   -364.2930358 -0.364293E+03  0.961E-03    2.79       0.0  T
   2   -364.2930361 -0.220055E-06  0.572E-03    2.79       1.1  T
   3   -364.2930359  0.209484E-06  0.121E-03    2.79       5.3  T
   4   -364.2930361 -0.256523E-06  0.403E-04    2.79      15.9  T
   5   -364.2930361 -0.229111E-07  0.171E-04    2.79      37.3  T
     SCC iter.                  ...        0 min,  0.239 sec
     gradient                   ...        0 min,  0.265 sec
 * total energy  :  -360.0721699 Eh     change       -0.1334548E-04 Eh
   gradient norm :     0.0009769 Eh/α   predicted    -0.6140952E-05 ( -53.98%)
   displ. norm   :     0.1966459 α      lambda       -0.1135418E-04
   maximum displ.:     0.1093424 α      in ANC's #2, #5, #4, ...

........................................................................
.............................. CYCLE  322 ..............................
........................................................................

 iter      E             dE          RMSdq      gap      omega  full diag
   1   -364.2932245 -0.364293E+03  0.892E-03    2.79       0.0  T
   2   -364.2932247 -0.166088E-06  0.531E-03    2.79       1.2  T
   3   -364.2932246  0.101894E-06  0.918E-04    2.79       7.0  T
   4   -364.2932247 -0.141491E-06  0.348E-04    2.79      18.3  T
     SCC iter.                  ...        0 min,  0.212 sec
     gradient                   ...        0 min,  0.262 sec
 * total energy  :  -360.0721831 Eh     change       -0.1316479E-04 Eh
   gradient norm :     0.0009869 Eh/α   predicted    -0.5777554E-05 ( -56.11%)
   displ. norm   :     0.2239105 α      lambda       -0.1268277E-04
   maximum displ.:     0.1264032 α      in ANC's #2, #5, #4, ...

........................................................................
.............................. CYCLE  323 ..............................
........................................................................

 iter      E             dE          RMSdq      gap      omega  full diag
   1   -364.2929631 -0.364293E+03  0.984E-03    2.79       0.0  T
   2   -364.2929633 -0.158449E-06  0.586E-03    2.79       1.1  T
   3   -364.2929630  0.304035E-06  0.136E-03    2.79       4.7  T
   4   -364.2929634 -0.369882E-06  0.362E-04    2.79      17.6  T
   5   -364.2929634 -0.137385E-07  0.177E-04    2.79      36.1  T
     SCC iter.                  ...        0 min,  0.240 sec
     gradient                   ...        0 min,  0.263 sec
 * total energy  :  -360.0721984 Eh     change       -0.1528388E-04 Eh
   gradient norm :     0.0009930 Eh/α   predicted    -0.6484626E-05 ( -57.57%)
   displ. norm   :     0.2651347 α      lambda       -0.1492062E-04
   maximum displ.:     0.1496608 α      in ANC's #2, #5, #4, ...

........................................................................
.............................. CYCLE  324 ..............................
........................................................................

 iter      E             dE          RMSdq      gap      omega  full diag
   1   -364.2931548 -0.364293E+03  0.112E-02    2.79       0.0  T
   2   -364.2931551 -0.221399E-06  0.663E-03    2.79       1.0  T
   3   -364.2931547  0.409173E-06  0.157E-03    2.79       4.1  T
   4   -364.2931551 -0.491295E-06  0.411E-04    2.79      15.5  T
   5   -364.2931552 -0.188460E-07  0.194E-04    2.79      32.9  T
     SCC iter.                  ...        0 min,  0.240 sec
     gradient                   ...        0 min,  0.262 sec
 * total energy  :  -360.0722159 Eh     change       -0.1748142E-04 Eh
   gradient norm :     0.0010677 Eh/α   predicted    -0.7694573E-05 ( -55.98%)
   displ. norm   :     0.2952868 α      lambda       -0.1522051E-04
   maximum displ.:     0.1685923 α      in ANC's #2, #5, #4, ...

........................................................................
.............................. CYCLE  325 ..............................
........................................................................

 iter      E             dE          RMSdq      gap      omega  full diag
   1   -364.2928576 -0.364293E+03  0.120E-02    2.79       0.0  T
   2   -364.2928578 -0.246612E-06  0.716E-03    2.78       1.0  T
   3   -364.2928572  0.672019E-06  0.195E-03    2.79       3.3  T
   4   -364.2928580 -0.782682E-06  0.421E-04    2.79      15.2  T
   5   -364.2928580 -0.185979E-07  0.202E-04    2.79      31.6  T
     SCC iter.                  ...        0 min,  0.240 sec
     gradient                   ...        0 min,  0.266 sec
 * total energy  :  -360.0722334 Eh     change       -0.1749534E-04 Eh
   gradient norm :     0.0010622 Eh/α   predicted    -0.7907748E-05 ( -54.80%)
   displ. norm   :     0.2923126 α      lambda       -0.1435343E-04
   maximum displ.:     0.1672868 α      in ANC's #2, #5, #4, ...

........................................................................
.............................. CYCLE  326 ..............................
........................................................................

 iter      E             dE          RMSdq      gap      omega  full diag
   1   -364.2932170 -0.364293E+03  0.115E-02    2.79       0.0  T
   2   -364.2932173 -0.226655E-06  0.680E-03    2.79       1.0  T
   3   -364.2932170  0.242885E-06  0.128E-03    2.79       5.0  T
   4   -364.2932173 -0.304334E-06  0.410E-04    2.79      15.6  T
   5   -364.2932174 -0.200516E-07  0.190E-04    2.79      33.6  T
     SCC iter.                  ...        0 min,  0.244 sec
     gradient                   ...        0 min,  0.264 sec
 * total energy  :  -360.0722502 Eh     change       -0.1684018E-04 Eh
   gradient norm :     0.0011431 Eh/α   predicted    -0.7450504E-05 ( -55.76%)
   displ. norm   :     0.3216367 α      lambda       -0.1558344E-04
   maximum displ.:     0.1866254 α      in ANC's #2, #5, #4, ...

........................................................................
.............................. CYCLE  327 ..............................
........................................................................

 iter      E             dE          RMSdq      gap      omega  full diag
   1   -364.2929901 -0.364293E+03  0.124E-02    2.79       0.0  T
   2   -364.2929903 -0.230748E-06  0.737E-03    2.79       1.0  T
   3   -364.2929902  0.130768E-06  0.105E-03    2.79       6.1  T
   4   -364.2929904 -0.186505E-06  0.421E-04    2.79      15.2  T
   5   -364.2929904 -0.210424E-07  0.197E-04    2.79      32.5  T
     SCC iter.                  ...        0 min,  0.240 sec
     gradient                   ...        0 min,  0.262 sec
 * total energy  :  -360.0722688 Eh     change       -0.1863597E-04 Eh
   gradient norm :     0.0009939 Eh/α   predicted    -0.8152753E-05 ( -56.25%)
   displ. norm   :     0.3419515 α      lambda       -0.1659685E-04
   maximum displ.:     0.1994586 α      in ANC's #2, #5, #4, ...

........................................................................
.............................. CYCLE  328 ..............................
........................................................................

 iter      E             dE          RMSdq      gap      omega  full diag
   1   -364.2932233 -0.364293E+03  0.129E-02    2.79       0.0  T
   2   -364.2932236 -0.248281E-06  0.763E-03    2.79       1.0  T
   3   -364.2932233  0.253903E-06  0.131E-03    2.79       4.9  T
   4   -364.2932236 -0.325678E-06  0.429E-04    2.79      14.9  T
   5   -364.2932237 -0.211035E-07  0.208E-04    2.79      30.7  T
     SCC iter.                  ...        0 min,  0.240 sec
     gradient                   ...        0 min,  0.263 sec
 * total energy  :  -360.0722888 Eh     change       -0.1999047E-04 Eh
   gradient norm :     0.0009121 Eh/α   predicted    -0.8734205E-05 ( -56.31%)
   displ. norm   :     0.3791454 α      lambda       -0.1733689E-04
   maximum displ.:     0.2226850 α      in ANC's #2, #5, #4, ...

........................................................................
.............................. CYCLE  329 ..............................
........................................................................

 iter      E             dE          RMSdq      gap      omega  full diag
   1   -364.2928013 -0.364293E+03  0.141E-02    2.79       0.0  T
   2   -364.2928016 -0.258857E-06  0.839E-03    2.79       1.0  T
   3   -364.2928011  0.472875E-06  0.169E-03    2.79       3.8  T
   4   -364.2928017 -0.577045E-06  0.443E-04    2.79      14.4  T
   5   -364.2928017 -0.196122E-07  0.220E-04    2.79      29.0  T
     SCC iter.                  ...        0 min,  0.240 sec
     gradient                   ...        0 min,  0.264 sec
 * total energy  :  -360.0723096 Eh     change       -0.2074842E-04 Eh
   gradient norm :     0.0010149 Eh/α   predicted    -0.9223460E-05 ( -55.55%)
   displ. norm   :     0.3781056 α      lambda       -0.1715721E-04
   maximum displ.:     0.2222905 α      in ANC's #2, #5, #4, ...

........................................................................
.............................. CYCLE  330 ..............................
........................................................................

 iter      E             dE          RMSdq      gap      omega  full diag
   1   -364.2931105 -0.364293E+03  0.136E-02    2.79       0.0  T
   2   -364.2931107 -0.235976E-06  0.809E-03    2.79       1.0  T
   3   -364.2931101  0.634911E-06  0.189E-03    2.79       3.4  T
   4   -364.2931108 -0.748836E-06  0.408E-04    2.79      15.7  T
   5   -364.2931109 -0.142344E-07  0.208E-04    2.79      30.7  T
     SCC iter.                  ...        0 min,  0.240 sec
     gradient                   ...        0 min,  0.262 sec
 * total energy  :  -360.0723299 Eh     change       -0.2034328E-04 Eh
   gradient norm :     0.0010900 Eh/α   predicted    -0.9124601E-05 ( -55.15%)
   displ. norm   :     0.4324352 α      lambda       -0.1846104E-04
   maximum displ.:     0.2560111 α      in ANC's #2, #5, #4, ...

........................................................................
.............................. CYCLE  331 ..............................
........................................................................

 iter      E             dE          RMSdq      gap      omega  full diag
   1   -364.2926383 -0.364293E+03  0.155E-02    2.79       0.0  T
   2   -364.2926386 -0.283770E-06  0.922E-03    2.79       1.0  T
   3   -364.2926379  0.640115E-06  0.194E-03    2.79       3.3  T
   4   -364.2926387 -0.769444E-06  0.466E-04    2.79      13.7  T
   5   -364.2926387 -0.202349E-07  0.233E-04    2.79      27.4  T
     SCC iter.                  ...        0 min,  0.239 sec
     gradient                   ...        0 min,  0.264 sec
 * total energy  :  -360.0723514 Eh     change       -0.2150209E-04 Eh
   gradient norm :     0.0011677 Eh/α   predicted    -0.1000058E-04 ( -53.49%)
   displ. norm   :     0.3875626 α      lambda       -0.1688007E-04
   maximum displ.:     0.2300548 α      in ANC's #2, #5, #4, ...

........................................................................
.............................. CYCLE  332 ..............................
........................................................................

 iter      E             dE          RMSdq      gap      omega  full diag
   1   -364.2929451 -0.364293E+03  0.131E-02    2.79       0.0  T
   2   -364.2929453 -0.223329E-06  0.777E-03    2.78       1.0  T
   3   -364.2929450  0.338681E-06  0.147E-03    2.78       4.3  T
   4   -364.2929454 -0.421797E-06  0.412E-04    2.78      15.5  T
   5   -364.2929454 -0.167665E-07  0.205E-04    2.78      31.2  T
     SCC iter.                  ...        0 min,  0.239 sec
     gradient                   ...        0 min,  0.263 sec
 * total energy  :  -360.0723714 Eh     change       -0.2001878E-04 Eh
   gradient norm :     0.0009666 Eh/α   predicted    -0.9004974E-05 ( -55.02%)
   displ. norm   :     0.4435508 α      lambda       -0.1829970E-04
   maximum displ.:     0.2647804 α      in ANC's #2, #5, #4, ...

........................................................................
.............................. CYCLE  333 ..............................
........................................................................

 iter      E             dE          RMSdq      gap      omega  full diag
   1   -364.2930163 -0.364293E+03  0.150E-02    2.78       0.0  T
   2   -364.2930166 -0.319427E-06  0.892E-03    2.78       1.0  T
   3   -364.2930165  0.173381E-06  0.121E-03    2.78       5.3  T
   4   -364.2930167 -0.251272E-06  0.487E-04    2.78      13.1  T
   5   -364.2930167 -0.283160E-07  0.229E-04    2.78      27.9  T
     SCC iter.                  ...        0 min,  0.240 sec
     gradient                   ...        0 min,  0.264 sec
 * total energy  :  -360.0723927 Eh     change       -0.2129515E-04 Eh
   gradient norm :     0.0009685 Eh/α   predicted    -0.9954837E-05 ( -53.25%)
   displ. norm   :     0.3977456 α      lambda       -0.1594999E-04
   maximum displ.:     0.2384171 α      in ANC's #2, #5, #4, ...

........................................................................
.............................. CYCLE  334 ..............................
........................................................................

 iter      E             dE          RMSdq      gap      omega  full diag
   1   -364.2929381 -0.364293E+03  0.130E-02    2.78       0.0  T
   2   -364.2929384 -0.229426E-06  0.772E-03    2.78       1.0  T
   3   -364.2929382  0.193128E-06  0.121E-03    2.78       5.3  T
   4   -364.2929384 -0.266594E-06  0.408E-04    2.78      15.7  T
   5   -364.2929385 -0.158076E-07  0.209E-04    2.78      30.5  T
     SCC iter.                  ...        0 min,  0.240 sec
     gradient                   ...        0 min,  0.263 sec
 * total energy  :  -360.0724115 Eh     change       -0.1874181E-04 Eh
   gradient norm :     0.0010225 Eh/α   predicted    -0.8538175E-05 ( -54.44%)
   displ. norm   :     0.3938095 α      lambda       -0.1588580E-04
   maximum displ.:     0.2366289 α      in ANC's #2, #5, #4, ...

........................................................................
.............................. CYCLE  335 ..............................
........................................................................

 iter      E             dE          RMSdq      gap      omega  full diag
   1   -364.2934094 -0.364293E+03  0.128E-02    2.78       0.0  T
   2   -364.2934096 -0.197026E-06  0.762E-03    2.78       1.0  T
   3   -364.2934094  0.249536E-06  0.129E-03    2.78       5.0  T
   4   -364.2934097 -0.324001E-06  0.379E-04    2.78      16.8  T
   5   -364.2934097 -0.129231E-07  0.195E-04    2.78      32.8  T
     SCC iter.                  ...        0 min,  0.240 sec
     gradient                   ...        0 min,  0.264 sec
 * total energy  :  -360.0724297 Eh     change       -0.1824360E-04 Eh
   gradient norm :     0.0010526 Eh/α   predicted    -0.8495279E-05 ( -53.43%)
   displ. norm   :     0.4151919 α      lambda       -0.1536237E-04
   maximum displ.:     0.2512584 α      in ANC's #2, #5, #4, ...

........................................................................
.............................. CYCLE  336 ..............................
........................................................................

 iter      E             dE          RMSdq      gap      omega  full diag
   1   -364.2929518 -0.364293E+03  0.137E-02    2.78       0.0  T
   2   -364.2929521 -0.225272E-06  0.814E-03    2.78       1.0  T
   3   -364.2929518  0.227948E-06  0.128E-03    2.78       5.0  T
   4   -364.2929521 -0.308894E-06  0.407E-04    2.78      15.7  T
   5   -364.2929522 -0.149241E-07  0.208E-04    2.78      30.8  T
     SCC iter.                  ...        0 min,  0.240 sec
     gradient                   ...        0 min,  0.264 sec
 * total energy  :  -360.0724471 Eh     change       -0.1742420E-04 Eh
   gradient norm :     0.0010164 Eh/α   predicted    -0.8272159E-05 ( -52.52%)
   displ. norm   :     0.3366570 α      lambda       -0.1280665E-04
   maximum displ.:     0.2043742 α      in ANC's #2, #5, #4, ...

........................................................................
.............................. CYCLE  337 ..............................
........................................................................

 iter      E             dE          RMSdq      gap      omega  full diag
   1   -364.2934580 -0.364293E+03  0.108E-02    2.78       0.0  T
   2   -364.2934582 -0.175347E-06  0.642E-03    2.78       1.0  T
   3   -364.2934581  0.130756E-06  0.993E-04    2.78       6.4  T
   4   -364.2934583 -0.180448E-06  0.344E-04    2.78      18.5  T
     SCC iter.                  ...        0 min,  0.192 sec
     gradient                   ...        0 min,  0.263 sec
 * total energy  :  -360.0724620 Eh     change       -0.1484613E-04 Eh
   gradient norm :     0.0009526 Eh/α   predicted    -0.6728935E-05 ( -54.68%)
   displ. norm   :     0.4271701 α      lambda       -0.1511384E-04
   maximum displ.:     0.2614862 α      in ANC's #2, #5, #4, ...

........................................................................
.............................. CYCLE  338 ..............................
........................................................................

 iter      E             dE          RMSdq      gap      omega  full diag
   1   -364.2931472 -0.364293E+03  0.142E-02    2.78       0.0  T
   2   -364.2931474 -0.280243E-06  0.842E-03    2.78       1.0  T
   3   -364.2931472  0.251429E-06  0.136E-03    2.78       4.7  T
   4   -364.2931475 -0.337465E-06  0.454E-04    2.78      14.1  T
   5   -364.2931476 -0.224811E-07  0.227E-04    2.78      28.1  T
     SCC iter.                  ...        0 min,  0.240 sec
     gradient                   ...        0 min,  0.263 sec
 * total energy  :  -360.0724784 Eh     change       -0.1637290E-04 Eh
   gradient norm :     0.0012521 Eh/α   predicted    -0.8171809E-05 ( -50.09%)
   displ. norm   :     0.3068738 α      lambda       -0.1206292E-04
   maximum displ.:     0.1886088 α      in ANC's #2, #5, #4, ...
 * RMSD in coord.:     0.6190696 α      energy gain  -0.8068475E-03 Eh

generating ANC from exact Hessian ...
Using Lindh-Hessian (1995)
 Shifting diagonal of input Hessian by    1.0048420105521412E-002
 Lowest  eigenvalues of input Hessian
    0.010000    0.010020    0.010027    0.010043    0.000000    0.000000
    0.000000    0.000000    0.000000    0.000000    0.010051    0.010081
    0.010094    0.010121    0.010144    0.010161    0.010197    0.010221
 Highest eigenvalues
    2.334370    2.340720    2.357784    2.368800    2.393176    2.395067


........................................................................
.............................. CYCLE  339 ..............................
........................................................................

 iter      E             dE          RMSdq      gap      omega  full diag
   1   -364.2931709 -0.364293E+03  0.999E-03    2.78       0.0  T
   2   -364.2931711 -0.173662E-06  0.592E-03    2.78       1.1  T
   3   -364.2931710  0.827543E-07  0.832E-04    2.78       7.7  T
   4   -364.2931711 -0.114341E-06  0.356E-04    2.78      18.0  T
     SCC iter.                  ...        0 min,  0.193 sec
     gradient                   ...        0 min,  0.264 sec
 * total energy  :  -360.0724916 Eh     change       -0.1318904E-04 Eh
   gradient norm :     0.0013071 Eh/α   predicted     0.0000000E+00 (-100.00%)
   displ. norm   :     0.0231108 α      lambda       -0.4537419E-05
   maximum displ.:     0.0071194 α      in ANC's #2, #12, #16, ...

........................................................................
.............................. CYCLE  340 ..............................
........................................................................

 iter      E             dE          RMSdq      gap      omega  full diag
   1   -364.2933520 -0.364293E+03  0.226E-03    2.78       0.0  T
   2   -364.2933521 -0.749530E-07  0.132E-03    2.78       4.8  T
   3   -364.2933520  0.133152E-07  0.472E-04    2.78      13.5  T
   4   -364.2933521 -0.177712E-07  0.176E-04    2.78      36.2  T
     SCC iter.                  ...        0 min,  0.192 sec
     gradient                   ...        0 min,  0.263 sec
 * total energy  :  -360.0724973 Eh     change       -0.5786277E-05 Eh
   gradient norm :     0.0006616 Eh/α   predicted    -0.2778329E-05 ( -51.98%)
   displ. norm   :     0.0595640 α      lambda       -0.8164547E-05
   maximum displ.:     0.0197380 α      in ANC's #12, #2, #16, ...

........................................................................
.............................. CYCLE  341 ..............................
........................................................................

 iter      E             dE          RMSdq      gap      omega  full diag
   1   -364.2935169 -0.364294E+03  0.376E-03    2.78       0.0  T
   2   -364.2935170 -0.134993E-06  0.221E-03    2.78       2.9  T
   3   -364.2935170  0.657980E-07  0.807E-04    2.78       7.9  T
   4   -364.2935171 -0.783513E-07  0.295E-04    2.78      21.7  T
     SCC iter.                  ...        0 min,  0.192 sec
     gradient                   ...        0 min,  0.264 sec
 * total energy  :  -360.0725054 Eh     change       -0.8055211E-05 Eh
   gradient norm :     0.0011453 Eh/α   predicted    -0.4089381E-05 ( -49.23%)
   displ. norm   :     0.0643616 α      lambda       -0.5237599E-05
   maximum displ.:     0.0236407 α      in ANC's #12, #2, #16, ...

........................................................................
.............................. CYCLE  342 ..............................
........................................................................

 iter      E             dE          RMSdq      gap      omega  full diag
   1   -364.2933821 -0.364293E+03  0.354E-03    2.78       0.0  T
   2   -364.2933821 -0.517766E-07  0.210E-03    2.78       3.0  T
   3   -364.2933820  0.728368E-07  0.695E-04    2.78       9.2  T
   4   -364.2933821 -0.851906E-07  0.187E-04    2.78      34.2  T
     SCC iter.                  ...        0 min,  0.194 sec
     gradient                   ...        0 min,  0.263 sec
 * total energy  :  -360.0725109 Eh     change       -0.5473903E-05 Eh
   gradient norm :     0.0009140 Eh/α   predicted    -0.2628617E-05 ( -51.98%)
   displ. norm   :     0.0799720 α      lambda       -0.5160977E-05
   maximum displ.:     0.0310643 α      in ANC's #12, #2, #16, ...

........................................................................
.............................. CYCLE  343 ..............................
........................................................................

 iter      E             dE          RMSdq      gap      omega  full diag
   1   -364.2932743 -0.364293E+03  0.390E-03    2.77       0.0  T
   2   -364.2932743 -0.427374E-07  0.232E-03    2.77       2.8  T
   3   -364.2932742  0.687352E-07  0.655E-04    2.77       9.7  T
   4   -364.2932743 -0.797405E-07  0.172E-04    2.77      37.1  T
     SCC iter.                  ...        0 min,  0.192 sec
     gradient                   ...        0 min,  0.263 sec
 * total energy  :  -360.0725170 Eh     change       -0.6145401E-05 Eh
   gradient norm :     0.0007936 Eh/α   predicted    -0.2593961E-05 ( -57.79%)
   displ. norm   :     0.1407102 α      lambda       -0.8654314E-05
   maximum displ.:     0.0563266 α      in ANC's #2, #12, #16, ...

........................................................................
.............................. CYCLE  344 ..............................
........................................................................

 iter      E             dE          RMSdq      gap      omega  full diag
   1   -364.2931909 -0.364293E+03  0.649E-03    2.77       0.0  T
   2   -364.2931910 -0.110093E-06  0.386E-03    2.77       1.7  T
   3   -364.2931909  0.111189E-06  0.849E-04    2.77       7.5  T
   4   -364.2931910 -0.132247E-06  0.272E-04    2.77      23.5  T
     SCC iter.                  ...        0 min,  0.193 sec
     gradient                   ...        0 min,  0.264 sec
 * total energy  :  -360.0725269 Eh     change       -0.9912207E-05 Eh
   gradient norm :     0.0008106 Eh/α   predicted    -0.4366315E-05 ( -55.95%)
   displ. norm   :     0.1710016 α      lambda       -0.9201596E-05
   maximum displ.:     0.0708453 α      in ANC's #2, #12, #16, ...

........................................................................
.............................. CYCLE  345 ..............................
........................................................................

 iter      E             dE          RMSdq      gap      omega  full diag
   1   -364.2931730 -0.364293E+03  0.754E-03    2.78       0.0  T
   2   -364.2931731 -0.134872E-06  0.448E-03    2.78       1.4  T
   3   -364.2931730  0.122385E-06  0.901E-04    2.78       7.1  T
   4   -364.2931731 -0.149055E-06  0.300E-04    2.78      21.3  T
     SCC iter.                  ...        0 min,  0.193 sec
     gradient                   ...        0 min,  0.264 sec
 * total energy  :  -360.0725369 Eh     change       -0.9942659E-05 Eh
   gradient norm :     0.0009790 Eh/α   predicted    -0.4663766E-05 ( -53.09%)
   displ. norm   :     0.1681983 α      lambda       -0.7736284E-05
   maximum displ.:     0.0718558 α      in ANC's #2, #12, #16, ...

........................................................................
.............................. CYCLE  346 ..............................
........................................................................

 iter      E             dE          RMSdq      gap      omega  full diag
   1   -364.2933563 -0.364293E+03  0.695E-03    2.78       0.0  T
   2   -364.2933564 -0.954116E-07  0.413E-03    2.78       1.5  T
   3   -364.2933562  0.186107E-06  0.103E-03    2.78       6.2  T
   4   -364.2933564 -0.214838E-06  0.263E-04    2.78      24.3  T
   5   -364.2933564 -0.932584E-08  0.113E-04    2.78      56.7  T
     SCC iter.                  ...        0 min,  0.240 sec
     gradient                   ...        0 min,  0.264 sec
 * total energy  :  -360.0725455 Eh     change       -0.8605690E-05 Eh
   gradient norm :     0.0008321 Eh/α   predicted    -0.3919083E-05 ( -54.46%)
   displ. norm   :     0.1822947 α      lambda       -0.8335552E-05
   maximum displ.:     0.0799097 α      in ANC's #2, #12, #7, ...

........................................................................
.............................. CYCLE  347 ..............................
........................................................................

 iter      E             dE          RMSdq      gap      omega  full diag
   1   -364.2935869 -0.364294E+03  0.741E-03    2.78       0.0  T
   2   -364.2935870 -0.930379E-07  0.440E-03    2.78       1.5  T
   3   -364.2935868  0.153669E-06  0.949E-04    2.78       6.7  T
   4   -364.2935870 -0.179484E-06  0.269E-04    2.78      23.7  T
     SCC iter.                  ...        0 min,  0.192 sec
     gradient                   ...        0 min,  0.264 sec
 * total energy  :  -360.0725549 Eh     change       -0.9447669E-05 Eh
   gradient norm :     0.0007994 Eh/α   predicted    -0.4230879E-05 ( -55.22%)
   displ. norm   :     0.2224846 α      lambda       -0.1021125E-04
   maximum displ.:     0.0995692 α      in ANC's #2, #12, #7, ...

........................................................................
.............................. CYCLE  348 ..............................
........................................................................

 iter      E             dE          RMSdq      gap      omega  full diag
   1   -364.2937817 -0.364294E+03  0.873E-03    2.78       0.0  T
   2   -364.2937818 -0.125299E-06  0.519E-03    2.78       1.2  T
   3   -364.2937815  0.311129E-06  0.132E-03    2.78       4.8  T
   4   -364.2937819 -0.356328E-06  0.304E-04    2.78      21.0  T
   5   -364.2937819 -0.120469E-07  0.133E-04    2.78      47.9  T
     SCC iter.                  ...        0 min,  0.239 sec
     gradient                   ...        0 min,  0.264 sec
 * total energy  :  -360.0725660 Eh     change       -0.1107631E-04 Eh
   gradient norm :     0.0008466 Eh/α   predicted    -0.5222949E-05 ( -52.85%)
   displ. norm   :     0.2077967 α      lambda       -0.9363776E-05
   maximum displ.:     0.0956606 α      in ANC's #2, #12, #7, ...

........................................................................
.............................. CYCLE  349 ..............................
........................................................................

 iter      E             dE          RMSdq      gap      omega  full diag
   1   -364.2938670 -0.364294E+03  0.823E-03    2.78       0.0  T
   2   -364.2938671 -0.111030E-06  0.490E-03    2.78       1.3  T
   3   -364.2938668  0.242265E-06  0.116E-03    2.78       5.5  T
   4   -364.2938671 -0.279867E-06  0.282E-04    2.78      22.7  T
   5   -364.2938671 -0.100329E-07  0.124E-04    2.78      51.7  T
     SCC iter.                  ...        0 min,  0.240 sec
     gradient                   ...        0 min,  0.268 sec
 * total energy  :  -360.0725758 Eh     change       -0.9816115E-05 Eh
   gradient norm :     0.0008753 Eh/α   predicted    -0.4772959E-05 ( -51.38%)
   displ. norm   :     0.1607680 α      lambda       -0.7233723E-05
   maximum displ.:     0.0767064 α      in ANC's #2, #12, #7, ...

........................................................................
.............................. CYCLE  350 ..............................
........................................................................

 iter      E             dE          RMSdq      gap      omega  full diag
   1   -364.2939141 -0.364294E+03  0.647E-03    2.78       0.0  T
   2   -364.2939142 -0.796925E-07  0.385E-03    2.78       1.7  T
   3   -364.2939141  0.928050E-07  0.759E-04    2.78       8.4  T
   4   -364.2939142 -0.110140E-06  0.239E-04    2.78      26.8  T
     SCC iter.                  ...        0 min,  0.197 sec
     gradient                   ...        0 min,  0.265 sec
 * total energy  :  -360.0725837 Eh     change       -0.7916538E-05 Eh
   gradient norm :     0.0006457 Eh/α   predicted    -0.3662893E-05 ( -53.73%)
   displ. norm   :     0.1400593 α      lambda       -0.6646943E-05
   maximum displ.:     0.0692564 α      in ANC's #2, #7, #12, ...

........................................................................
.............................. CYCLE  351 ..............................
........................................................................

 iter      E             dE          RMSdq      gap      omega  full diag
   1   -364.2938676 -0.364294E+03  0.550E-03    2.78       0.0  T
   2   -364.2938677 -0.783196E-07  0.327E-03    2.78       2.0  T
   3   -364.2938676  0.104967E-06  0.792E-04    2.78       8.1  T
   4   -364.2938677 -0.119970E-06  0.241E-04    2.78      26.5  T
     SCC iter.                  ...        0 min,  0.192 sec
     gradient                   ...        0 min,  0.265 sec
 * total energy  :  -360.0725911 Eh     change       -0.7345511E-05 Eh
   gradient norm :     0.0006052 Eh/α   predicted    -0.3356529E-05 ( -54.31%)
   displ. norm   :     0.1422116 α      lambda       -0.6417326E-05
   maximum displ.:     0.0721093 α      in ANC's #2, #7, #12, ...

........................................................................
.............................. CYCLE  352 ..............................
........................................................................

 iter      E             dE          RMSdq      gap      omega  full diag
   1   -364.2937648 -0.364294E+03  0.597E-03    2.78       0.0  T
   2   -364.2937649 -0.849042E-07  0.355E-03    2.78       1.8  T
   3   -364.2937647  0.216617E-06  0.111E-03    2.78       5.8  T
   4   -364.2937649 -0.246823E-06  0.239E-04    2.78      26.8  T
   5   -364.2937649 -0.799918E-08  0.102E-04    2.78      62.4  T
     SCC iter.                  ...        0 min,  0.240 sec
     gradient                   ...        0 min,  0.264 sec
 * total energy  :  -360.0725982 Eh     change       -0.7127173E-05 Eh
   gradient norm :     0.0006950 Eh/α   predicted    -0.3241541E-05 ( -54.52%)
   displ. norm   :     0.1445489 α      lambda       -0.6229575E-05
   maximum displ.:     0.0750931 α      in ANC's #2, #7, #4, ...

........................................................................
.............................. CYCLE  353 ..............................
........................................................................

 iter      E             dE          RMSdq      gap      omega  full diag
   1   -364.2937373 -0.364294E+03  0.600E-03    2.77       0.0  T
   2   -364.2937374 -0.877836E-07  0.358E-03    2.77       1.8  T
   3   -364.2937371  0.272202E-06  0.124E-03    2.77       5.2  T
   4   -364.2937374 -0.312333E-06  0.234E-04    2.77      27.3  T
   5   -364.2937374 -0.652420E-08  0.109E-04    2.77      58.7  T
     SCC iter.                  ...        0 min,  0.240 sec
     gradient                   ...        0 min,  0.263 sec
 * total energy  :  -360.0726051 Eh     change       -0.6891037E-05 Eh
   gradient norm :     0.0007127 Eh/α   predicted    -0.3145932E-05 ( -54.35%)
   displ. norm   :     0.1411416 α      lambda       -0.5710432E-05
   maximum displ.:     0.0753048 α      in ANC's #2, #7, #4, ...

........................................................................
.............................. CYCLE  354 ..............................
........................................................................

 iter      E             dE          RMSdq      gap      omega  full diag
   1   -364.2937852 -0.364294E+03  0.584E-03    2.78       0.0  T
   2   -364.2937853 -0.816147E-07  0.347E-03    2.78       1.8  T
   3   -364.2937850  0.315342E-06  0.133E-03    2.78       4.8  T
   4   -364.2937853 -0.362103E-06  0.220E-04    2.78      29.0  T
   5   -364.2937853 -0.516303E-08  0.107E-04    2.78      59.7  T
     SCC iter.                  ...        0 min,  0.239 sec
     gradient                   ...        0 min,  0.264 sec
 * total energy  :  -360.0726114 Eh     change       -0.6271944E-05 Eh
   gradient norm :     0.0005607 Eh/α   predicted    -0.2883229E-05 ( -54.03%)
   displ. norm   :     0.1235244 α      lambda       -0.4743769E-05
   maximum displ.:     0.0678278 α      in ANC's #2, #7, #4, ...

........................................................................
.............................. CYCLE  355 ..............................
........................................................................

 iter      E             dE          RMSdq      gap      omega  full diag
   1   -364.2938781 -0.364294E+03  0.509E-03    2.78       0.0  T
   2   -364.2938781 -0.595618E-07  0.303E-03    2.78       2.1  T
   3   -364.2938780  0.165771E-06  0.961E-04    2.78       6.7  T
   4   -364.2938781 -0.191447E-06  0.194E-04    2.78      32.9  T
     SCC iter.                  ...        0 min,  0.193 sec
     gradient                   ...        0 min,  0.264 sec
 * total energy  :  -360.0726166 Eh     change       -0.5223695E-05 Eh
   gradient norm :     0.0004807 Eh/α   predicted    -0.2390385E-05 ( -54.24%)
   displ. norm   :     0.1066198 α      lambda       -0.4082454E-05
   maximum displ.:     0.0601216 α      in ANC's #2, #7, #4, ...

........................................................................
.............................. CYCLE  356 ..............................
........................................................................

 iter      E             dE          RMSdq      gap      omega  full diag
   1   -364.2939896 -0.364294E+03  0.419E-03    2.78       0.0  T
   2   -364.2939897 -0.339267E-07  0.250E-03    2.78       2.6  T
   3   -364.2939896  0.889546E-07  0.700E-04    2.78       9.1  T
   4   -364.2939897 -0.103333E-06  0.151E-04    2.78      42.3  T
     SCC iter.                  ...        0 min,  0.192 sec
     gradient                   ...        0 min,  0.266 sec
 * total energy  :  -360.0726212 Eh     change       -0.4646880E-05 Eh
   gradient norm :     0.0005200 Eh/α   predicted    -0.2052690E-05 ( -55.83%)
   displ. norm   :     0.1057382 α      lambda       -0.3933996E-05
   maximum displ.:     0.0609730 α      in ANC's #2, #7, #4, ...

   *** GEOMETRY OPTIMIZATION CONVERGED AFTER 356 ITERATIONS ***

------------------------------------------------------------------------
 total energy gain   :        -0.1221964 Eh      -76.6794 kcal/mol
 total RMSD          :         6.0479424 a0        3.2004 Å
 total power (kW/mol):        -0.9011980 (step)   -1.5331 (real)
------------------------------------------------------------------------

 ANCopt (total)                0 d,  0 h,  3 min, 29.262 sec
 optimizer setup                ...        0 min,  0.000 sec (  0.000%)
 model hessian                  ...        0 min,  1.521 sec (  0.727%)
 ANC generation                 ...        0 min,  0.641 sec (  0.307%)
 coordinate transformation      ...        0 min,  0.055 sec (  0.026%)
 single point calculation       ...        3 min, 26.680 sec ( 98.766%)
 optimization log               ...        0 min,  0.101 sec (  0.048%)
 hessian update                 ...        0 min,  0.049 sec (  0.024%)
 rational function              ...        0 min,  0.179 sec (  0.086%)

================
 final structure:
================
245
 xtb: 6.7.1 (6d44803)
C           16.13090433490484       -2.17157460992221       -0.26217475292301
O           15.44103902481270       -1.07802439779784        0.32331969541559
C           15.87493017619300       -0.72018751925914        1.54471204079269
O           16.81153925706997       -1.24753104117898        2.08112569519019
C           15.09929462879180        0.46094323546762        2.11937233667733
C           14.90204248885822        1.52970436377723        1.03756859071427
C           15.95706089395445        1.08020754662218        3.23380118593103
C           13.74737078044993        0.01965340367845        2.77280450164812
O           13.96221115002990       -0.57263632905173        4.02800004915830
C           12.75758779734073       -0.87320597724649        1.97066479032503
C           12.34532261590068       -0.30972594767718        0.61023466836242
C           13.20743788978740       -2.31771686845421        1.90893678760504
O           14.29252032650297       -2.67568550705331        2.30039856300968
C           12.21118582560847       -3.36915498397831        1.37932225016382
C           12.36988026320851       -4.62767543671463        2.25068716537230
C           12.63990737068815       -3.69786101396632       -0.05705274437281
C           10.78872563644608       -2.92712931606157        1.49105726437983
C            9.90240134291119       -2.78179737025926        0.51001480071205
C            8.54617864214557       -2.27832046298333        0.81047313406485
O            8.10601040267498       -2.16288850539332        1.94194376992689
N            7.81984720965522       -1.95177105234623       -0.29304504474996
C            6.62798374944197       -1.14575447240688       -0.16731557272869
C            5.65437852180544       -1.47301758861620       -1.31520690598614
O            4.45843846188089       -0.76762797298129       -1.08396715457878
C            5.39928625632058       -2.99214188997763       -1.45767267363539
C            4.81671286404768       -3.29238651142287       -2.84015889815036
C            4.48157240200433       -3.50282341170752       -0.34849794913000
C            7.03901250367185        0.36222020955041       -0.13170911934197
O            8.30734911252988        0.51774555780072        0.45368022532719
C            5.95151254521665        1.22251000845425        0.55928792649281
C            6.05743268874766        1.13994873591198        2.08287847748857
C            6.00435452103487        2.65831196997073        0.11193004956076
C            5.70626950708617        3.12767380595540       -1.09588593746739
C            5.33921340725028        2.27248429451122       -2.26962457258295
C            5.75758982259121        4.62190954620509       -1.35731384817870
O            6.59969333915742        4.93551081546376       -2.45330778816230
C            4.33768207992012        5.21048388867438       -1.59781485255602
C            4.23414357530416        6.57362886023514       -0.91280918974287
C            3.97737974859172        5.33653432027053       -3.09002999904170
C            2.65723210317418        4.67571425788868       -3.48987622974535
C            1.42868619887207        5.35712768449829       -2.88580123523514
O            1.33400029956763        6.64563698232977       -3.44606889494481
C            0.12808629316298        4.54939143053244       -3.14425333851622
C           -0.13548928339060        4.34214451367819       -4.63342242907657
C            0.17246357177979        3.21896181077082       -2.41255209321453
O            0.31271115905493        2.14745174838808       -2.98221567127320
N            0.09040747634455        3.33210328693599       -1.06617882858955
C           -0.23583889436555        2.24407127873134       -0.15303368453176
C            0.78987880698566        1.09998965115078       -0.27569496369306
C            2.20851480318816        1.64455628650148       -0.40709023231752
O            0.68754256677184        0.29156102953647        0.87818482166060
C           -1.71746041570928        1.82382349358656       -0.42155797911935
O           -2.35213554149627        3.06394049520061       -0.77439013398471
C           -3.10974864165290        3.28003960307343       -1.85751793512096
O           -3.27805611087041        4.41445084107346       -2.20826434113685
C           -3.81380071528411        2.09410107092154       -2.52318475906228
C           -2.99448069989404        1.45534374830923       -3.66639563008676
O           -2.86893507309546        2.37195261101675       -4.72007491904886
C           -3.69314049107770        0.16175670181415       -4.10035654553937
O           -4.48872632160811       -0.45203492530239       -3.45063908699416
O           -3.28983557209663       -0.20814640590400       -5.31750270863024
N           -5.07630256014481        2.54645478944932       -3.03890322955924
C           -6.30641153467177        2.15732782650886       -2.61503725236695
O           -7.31462791537917        2.54424215932453       -3.16353100152714
C           -6.28941658745939        1.20390709851780       -1.46416012316808
C           -6.20257549026516        1.58651510804555       -0.19665662665071
C           -6.16357516312088        2.98519022602930        0.24687187672708
C           -7.16740612976664        3.84502781101535        0.13343433420784
C           -8.52120840803636        3.54572533697749       -0.41966717198680
C           -9.60279092068814        3.72662553363408        0.65584974496117
C           -9.48949930897664        2.69112349019349        1.73077436331993
C          -10.50874935725700        2.10148784250558        2.33775128068841
C          -11.93621760133108        2.34967821508567        2.07901262763401
C          -12.63103441429802        1.87423569463251        1.05491706152084
C          -12.06533259805819        0.97984007895266       -0.00237628317787
C          -12.38417082509217       -0.49554994984284        0.28262209684292
C          -13.85971387237037       -0.84346808975536        0.08070084657779
C          -14.07503880952016       -2.34427507099238        0.28410960513218
C          -15.52789542093379       -2.73402153217772        0.02924286520636
C          -13.13403258088852       -3.09688930564992       -0.65837951916427
C          -11.67275619319414       -2.65187289789025       -0.47677716251010
C          -11.05529031932051       -3.23599694860090        0.80730866795490
C           -9.52362104180788       -3.10929203789628        0.91302576241878
O           -9.03227341294113       -4.07549249214257        1.83080092958266
C           -9.05730040708935       -1.69533449140625        1.33204744975641
C           -8.59283983769679       -0.91654638732157        0.10430143655655
C           -7.90981832144539       -1.69912003870758        2.36262508979314
O           -7.59696708056261       -0.32783426928517        2.63462436535774
C           -8.22421170267002       -2.39239581811460        3.66477482114351
C           -9.56827751537554       -2.05431599951769        4.24979964921479
C           -7.38949907895491       -3.16106779834808        4.35674935755185
C           -5.98630599472928       -3.67949317995094        4.16581426509911
C           -6.03055266280646       -5.20481949950386        3.99647380711218
C           -5.00994817737497       -2.95565576292778        3.21015963286588
O           -3.68129189135533       -3.37349486243306        3.51668459545767
C           -5.09303998051598       -3.08431366203042        1.69654299233521
C           -5.75663004095705       -4.26704581422783        1.06307600515865
C           -4.47506955395288       -2.17252864068517        0.94816695287860
C           -3.73812326289098       -0.97007172005516        1.46731896930172
C           -2.90769707088694       -0.28867642800935        0.37923866166961
O           -1.74704951839522       -1.10127256717161        0.15596774319870
C           -1.48242919426845       -1.48096831743136       -1.08401643213999
O           -2.07398742797146       -1.09261715226159       -2.06240934825971
C           -0.34516169172191       -2.47742134950928       -1.11559162175921
C            0.24574593961899       -2.66639974139571       -2.53183931897031
O            1.13842985504366       -3.74115496092626       -2.56808181872887
C            0.94257774800391       -1.36226965825083       -2.91561705169670
O            2.11145724186905       -1.17524004900019       -2.65069837853375
O            0.15175295489892       -0.50041639190902       -3.49627686178365
C           -2.53015959966622        1.16780077064433        0.72794298112767
C           -1.89857778782502        1.30384920430910        2.11028750860665
O          -11.56265061607126       -1.25096138945516       -0.59086482274087
H           15.63585564640498       -2.37756169374362       -1.20821611156624
H           17.17900476780455       -1.91323291216855       -0.42620596001850
H           16.08428885416598       -3.03663726732664        0.40240902333609
H           14.25880345349630        2.32285837871783        1.41200197697608
H           15.86717338050005        1.96645211582060        0.78798563400647
H           14.47533055896315        1.12694088864266        0.12787593118935
H           16.89474265410623        1.44285326379793        2.82083625673589
H           15.42414205682094        1.90901422302613        3.69214920674805
H           16.18691614880024        0.34728323217013        4.00038910563984
H           13.21040792277785        0.95170339745710        2.99656109438862
H           14.49510906466625       -1.36941998768005        3.88979795950798
H           11.85506061231865       -0.89670187612510        2.59830854592132
H           13.12362288254183       -0.47513496094211       -0.12767212506967
H           12.15900276647826        0.75665814594880        0.70248376727994
H           11.42590985628341       -0.77635458579134        0.26978880425908
H           13.41041047614395       -4.94209524107482        2.25926309578466
H           12.06433919583653       -4.42369669068020        3.27438955773189
H           11.75559601511880       -5.43332452262671        1.85629574772023
H           12.01700296499726       -4.49553363081779       -0.45554666313679
H           12.56088097598471       -2.82751568793462       -0.70263156331600
H           13.67311682700260       -4.03600515897890       -0.05722336944494
H           10.43716844619227       -2.73827876867144        2.49882461400080
H           10.14117758006562       -2.95842837819132       -0.52786378949569
H            8.30550387240343       -1.87832799885235       -1.17433299354040
H            6.16811354988144       -1.41460349556430        0.78737229774353
H            6.11682325806441       -1.11690844207469       -2.25395817438707
H            3.81627991582886       -0.98503066174109       -1.77847970947251
H            6.36267057850896       -3.50286529328292       -1.37194018078597
H            4.56458351295399       -4.34655120570568       -2.92473152509119
H            3.91765961024519       -2.70948220160482       -3.02721764256370
H            5.53897426932075       -3.05232072795130       -3.61788717635754
H            4.23615456688581       -4.54873936460672       -0.51479938755012
H            4.96918992698284       -3.41632954179637        0.61876028601219
H            3.55927103067891       -2.92685536112779       -0.31910476805168
H            7.17362191762222        0.70721305894806       -1.16114266755024
H            8.24764977910494        0.22606109267105        1.37278809392447
H            4.99592829090248        0.79660425312527        0.25416907535822
H            6.10394384240517        0.10722312747207        2.42319545500096
H            5.18578012398717        1.60702900463977        2.53542046223063
H            6.94260804835679        1.66463630515283        2.43884067280950
H            6.29671463643006        3.36332517602702        0.87978863290824
H            4.99897375580775        1.29450928059015       -1.94974195250282
H            6.20394592987938        2.15059432221123       -2.92316810574057
H            4.56139615677791        2.74892317315695       -2.85578043411892
H            6.16180668687140        5.10489687544750       -0.45270740044610
H            7.47587715857871        4.58756764732702       -2.26037893369000
H            3.63441113732185        4.52509007427294       -1.11141129652712
H            5.00357724528128        7.23782638605747       -1.29858383698576
H            3.26466116552058        7.02487985824458       -1.10774874991397
H            4.36286516956324        6.47923770021388        0.16420180923351
H            4.77773282459043        4.90508223642085       -3.68894025077678
H            3.91687211668410        6.39138283845424       -3.35583176592175
H            2.56781393073596        4.73187133870463       -4.57466761622264
H            2.64365686116291        3.62445987829506       -3.19666737513483
H            1.56450432138526        5.43881153989112       -1.79339676503466
H            0.51675732277383        7.06282078809691       -3.15246654405850
H           -0.70615122844817        5.12465572270921       -2.72177335031456
H           -1.16993908153309        4.04443584544709       -4.78370491497244
H            0.51095666799994        3.56293041107133       -5.02766234564523
H            0.05108567485327        5.26783860465620       -5.17137129797071
H           -0.16174392896811        4.24394984690360       -0.71706928154493
H           -0.14958032924164        2.65124757380401        0.85531936936484
H            0.54471812693719        0.50000891603109       -1.16069567638548
H            2.44821390626487        2.28535349689653        0.43850059060250
H            2.32838954094242        2.20855272774566       -1.32393621652795
H            2.90965913753089        0.81424343302147       -0.43518382877410
H            1.51735317870002       -0.18967045753545        0.97750978561043
H           -1.71551496489930        1.16000237511517       -1.28805658978310
H           -4.01353094670824        1.31765816373803       -1.78026719637761
H           -1.99621238772185        1.14501610771867       -3.31456097949185
H           -2.55836050635052        1.89349364842736       -5.49893124689671
H           -3.70457346989740       -1.04821562494927       -5.56871336524556
H           -5.03119959715469        3.21908080551913       -3.79314919862841
H           -6.34861716553558        0.16212238438402       -1.74323430315976
H           -6.16836909932117        0.84375569938765        0.59265982615966
H           -5.24590917199466        3.29602302015124        0.73650717031598
H           -7.04115440511181        4.85071657212393        0.51603912327257
H           -8.72236316908294        4.23129726368411       -1.24599790656971
H           -8.56105719771036        2.53156262992539       -0.81437125093690
H           -9.48744357976553        4.71783689493798        1.10947662129225
H          -10.59282795756119        3.68396084951599        0.20031724768959
H           -8.48024711410005        2.43784607308814        2.02583526506690
H          -10.31052621153895        1.39653514166915        3.13750529927403
H          -12.43603479938529        2.95202587223928        2.83076832994362
H          -13.68558208937157        2.10312975376987        0.97238123455242
H          -10.98031665903542        1.07301274147267       -0.03146511916097
H          -12.46339219928076        1.24100996067252       -0.98400335224350
H          -12.11348401620191       -0.70671680868637        1.33020776192397
H          -14.46855103897314       -0.27405005173485        0.78384574100672
H          -14.15276825112641       -0.57092209501108       -0.93564331364151
H          -13.82551996851578       -2.59844849148053        1.32068303902618
H          -15.81214365891170       -2.49544054863408       -0.99337479079395
H          -16.18968091082665       -2.19557505969180        0.70379066414353
H          -15.67079864340972       -3.80112558151766        0.18501272788519
H          -13.21654448728141       -4.17401307197261       -0.50458720656586
H          -13.42875866479407       -2.87795691341853       -1.68724816200715
H          -11.08436413590769       -3.02597628628209       -1.32580349682026
H          -11.30315632890098       -4.30270055019504        0.81442680763570
H          -11.51651641429725       -2.79051453151744        1.68881262931556
H           -9.09217779140901       -3.32986086061067       -0.07744378512719
H           -9.38980527578394       -4.93665481213426        1.58528962261592
H           -9.89328456035870       -1.15289727590052        1.77501657516653
H           -7.69563347928762       -1.37122966501823       -0.30981816185553
H           -8.36977537528327        0.10437548690008        0.39363461766951
H           -9.37191365392539       -0.90270705531664       -0.65041033628921
H           -7.03715286155225       -2.16352385655362        1.89652339959378
H           -7.12582749855294       -0.29895331348328        3.47367423338577
H          -10.34749227585244       -2.60781221926452        3.73059856528747
H           -9.61441428818987       -2.31090761870503        5.30539359480963
H           -9.76743967201467       -0.98996986819791        4.13503938394020
H           -7.78547133928439       -3.54922834069043        5.29104375296131
H           -5.51156987902876       -3.50514510772222        5.14919411700046
H           -5.04583090241415       -5.57696298199427        3.72482698552904
H           -6.32809181209009       -5.66825785260413        4.93531954774217
H           -6.75199056417334       -5.49159675569046        3.23979889891236
H           -5.10291066098350       -1.88041281822084        3.45126508501185
H           -3.55291144113686       -3.34676103457286        4.47202764342658
H           -6.79063430682898       -4.35013359848340        1.38901527417493
H           -5.22951037207059       -5.18002654062233        1.33134084387726
H           -5.73579299361194       -4.16312467089152       -0.01945187762319
H           -4.50095728853664       -2.27519987171573       -0.12847354392181
H           -4.45549412552474       -0.24609762750845        1.86427500948089
H           -3.06631065105756       -1.27982033856015        2.26820027455690
H           -3.48248648076928       -0.28141864408463       -0.55739764941108
H           -0.73460106011991       -3.44191564633997       -0.78021926736659
H            0.42082415121832       -2.16466412684463       -0.40369431027162
H           -0.56219003707600       -2.87414658455092       -3.23742131281364
H            1.98509304720408       -3.44743351385392       -2.19977960390308
H            0.50561579362780        0.41848043651749       -3.54710020935196
H           -3.48281610522431        1.71042033680070        0.74577972773302
H           -1.71211501989837        2.35138935824985        2.33305306019050
H           -2.58109840646333        0.92457217690581        2.86422027240716
H           -0.97037243392454        0.74626491833648        2.16006999054046

 Bond Distances (Angstroems)
 ---------------------------
C1-O2=1.4194         C1-H113=1.0874       C1-H114=1.0919       C1-H115=1.0919       O2-C1=1.4194         O2-C3=1.3447         
C3-O2=1.3447         C3-O4=1.2013         C3-C5=1.5254         O4-C3=1.2013         C5-C3=1.5254         C5-C6=1.5334         
C5-C7=1.5366         C5-C8=1.5651         C6-C5=1.5334         C6-H116=1.0877       C6-H117=1.0884       C6-H118=1.0825       
C7-C5=1.5366         C7-H119=1.0869       C7-H120=1.0867       C7-H121=1.0852       C8-C5=1.5651         C8-O9=1.4044         
C8-C10=1.5557        C8-H122=1.0987       O9-C8=1.4044         O9-H123=0.9685       C10-C8=1.5557        C10-C11=1.5291       
C10-C12=1.5142       C10-H124=1.0996      C11-C10=1.5291       C11-H125=1.0852      C11-H126=1.0865      C11-H127=1.0858      
C12-C10=1.5142       C12-O13=1.2078       C12-C14=1.5422       O13-C12=1.2078       C14-C12=1.5422       C14-C15=1.5389       
C14-C16=1.5346       C14-C17=1.4937       C15-C14=1.5389       C15-H128=1.0870      C15-H129=1.0876      C15-H130=1.0872      
C16-C14=1.5346       C16-H131=1.0877      C16-H132=1.0865      C16-H133=1.0871      C17-C14=1.4937       C17-C18=1.3301       
C17-H134=1.0839      C18-C17=1.3301       C18-C19=1.4775       C18-H135=1.0795      C19-C18=1.4775       C19-O20=1.2195       
C19-N21=1.3609       O20-C19=1.2195       N21-C19=1.3609       N21-C22=1.4443       N21-H136=1.0089      C22-N21=1.4443       
C22-C23=1.5403       C22-C28=1.5634       C22-H137=1.0932      C23-C22=1.5403       C23-O24=1.4076       C23-C25=1.5470       
C23-H138=1.1054      O24-C23=1.4076       O24-H139=0.9706      C25-C23=1.5470       C25-C26=1.5300       C25-C27=1.5275       
C25-H140=1.0938      C26-C25=1.5300       C26-H141=1.0872      C26-H142=1.0877      C26-H143=1.0882      C27-C25=1.5275       
C27-H144=1.0871      C27-H145=1.0867      C27-H146=1.0878      C28-C22=1.5634       C28-O29=1.4055       C28-C30=1.5493       
C28-H147=1.0940      O29-C28=1.4055       O29-H148=0.9661      C30-C28=1.5493       C30-C31=1.5295       C30-C32=1.5048       
C30-H149=1.0898      C31-C30=1.5295       C31-H150=1.0883      C31-H151=1.0875      C31-H152=1.0888      C32-C30=1.5048       
C32-C33=1.3297       C32-H153=1.0826      C33-C32=1.3297       C33-C34=1.4979       C33-C35=1.5178       C34-C33=1.4979       
C34-H154=1.0838      C34-H155=1.0908      C34-H156=1.0842      C35-C33=1.5178       C35-O36=1.4173       C35-C37=1.5558       
C35-H157=1.1023      O36-C35=1.4173       O36-H158=0.9623      C37-C35=1.5558       C37-C38=1.5291       C37-C39=1.5403       
C37-H159=1.0959      C38-C37=1.5291       C38-H160=1.0872      C38-H161=1.0870      C38-H162=1.0888      C39-C37=1.5403       
C39-C40=1.5295       C39-H163=1.0888      C39-H164=1.0895      C40-C39=1.5295       C40-C41=1.5292       C40-H165=1.0899      
C40-H166=1.0915      C41-C40=1.5292       C41-O42=1.4082       C41-C43=1.5527       C41-H167=1.1038      O42-C41=1.4082       
O42-H168=0.9634      C43-C41=1.5527       C43-C44=1.5264       C43-C45=1.5190       C43-H169=1.0979      C44-C43=1.5264       
C44-H170=1.0869      C44-H171=1.0865      C44-H172=1.0868      C45-C43=1.5190       C45-O46=1.2216       C45-N47=1.3536       
O46-C45=1.2216       N47-C45=1.3536       N47-C48=1.4574       N47-H173=1.0084      C48-N47=1.4574       C48-C49=1.5414       
C48-C52=1.5633       C48-H174=1.0909      C49-C48=1.5414       C49-C50=1.5252       C49-O51=1.4126       C49-H175=1.0970      
C50-C49=1.5252       C50-H176=1.0877      C50-H177=1.0831      C50-H178=1.0871      O51-C49=1.4126       O51-H179=0.9644      
C52-C48=1.5633       C52-O53=1.4371       C52-C110=1.5531      C52-H180=1.0916      O53-C52=1.4371       O53-C54=1.3393       
C54-O53=1.3393       C54-O55=1.1993       C54-C56=1.5314       O55-C54=1.1993       C56-C54=1.5314       C56-C57=1.5447       
C56-N62=1.4368       C56-H181=1.0930      C57-C56=1.5447       C57-O58=1.4022       C57-C59=1.5329       C57-H182=1.1030      
O58-C57=1.4022       O58-H183=0.9654      C59-C57=1.5329       C59-O60=1.1966       C59-O61=1.3345       O60-C59=1.1966       
O61-C59=1.3345       O61-H184=0.9700      N62-C56=1.4368       N62-C63=1.3580       N62-H185=1.0116      C63-N62=1.3580       
C63-O64=1.2112       C63-C65=1.4946       O64-C63=1.2112       C65-C63=1.4946       C65-C66=1.3268       C65-H186=1.0801      
C66-C65=1.3268       C66-C67=1.4678       C66-H187=1.0844      C67-C66=1.4678       C67-C68=1.3266       C67-H188=1.0856      
C68-C67=1.3266       C68-C69=1.4927       C68-H189=1.0834      C69-C68=1.4927       C69-C70=1.5360       C69-H190=1.0924      
C69-H191=1.0890      C70-C69=1.5360       C70-C71=1.4969       C70-H192=1.0962      C70-H193=1.0906      C71-C70=1.4969       
C71-C72=1.3247       C71-H194=1.0816      C72-C71=1.3247       C72-C73=1.4718       C72-H195=1.0844      C73-C72=1.4718       
C73-C74=1.3257       C73-H196=1.0853      C74-C73=1.3257       C74-C75=1.4959       C74-H197=1.0823      C75-C74=1.4959       
C75-C76=1.5361       C75-H198=1.0894      C75-H199=1.0910      C76-C75=1.5361       C76-C77=1.5294       C76-O112=1.4172      
C76-H200=1.1024      C77-C76=1.5294       C77-C78=1.5298       C77-H201=1.0906      C77-H202=1.0923      C78-C77=1.5298       
C78-C79=1.5257       C78-C80=1.5298       C78-H203=1.0961      C79-C78=1.5257       C79-H204=1.0879      C79-H205=1.0876      
C79-H206=1.0878      C80-C78=1.5298       C80-C81=1.5383       C80-H207=1.0912      C80-H208=1.0924      C81-C80=1.5383       
C81-C82=1.5399       C81-O112=1.4099      C81-H209=1.0986      C82-C81=1.5399       C82-C83=1.5405       C82-H210=1.0951      
C82-H211=1.0901      C83-C82=1.5405       C83-O84=1.4203       C83-C85=1.5467       C83-H212=1.1026      O84-C83=1.4203       
O84-H213=0.9642      C85-C83=1.5467       C85-C86=1.5263       C85-C87=1.5423       C85-H214=1.0906      C86-C85=1.5263       
C86-H215=1.0878      C86-H216=1.0843      C86-H217=1.0848      C87-C85=1.5423       C87-O88=1.4326       C87-C89=1.5083       
C87-H218=1.0929      O88-C87=1.4326       O88-H219=0.9627      C89-C87=1.5083       C89-C90=1.5043       C89-C91=1.3291       
C90-C89=1.5043       C90-H220=1.0877      C90-H221=1.0873      C90-H222=1.0889      C91-C89=1.3291       C91-C92=1.5080       
C91-H223=1.0864      C92-C91=1.5080       C92-C93=1.5353       C92-C94=1.5461       C92-H224=1.1058      C93-C92=1.5353       
C93-H225=1.0872      C93-H226=1.0885      C93-H227=1.0841      C94-C92=1.5461       C94-O95=1.4261       C94-C96=1.5213       
C94-H228=1.1059      O95-C94=1.4261       O95-H229=0.9643      C96-C94=1.5213       C96-C97=1.4968       C96-C98=1.3317       
C97-C96=1.4968       C97-H230=1.0873      C97-H231=1.0878      C97-H232=1.0877      C98-C96=1.3317       C98-C99=1.5028       
C98-H233=1.0818      C99-C98=1.5028       C99-C100=1.5290      C99-H234=1.0938      C99-H235=1.0903      C100-C99=1.5290      
C100-O101=1.4343     C100-C110=1.5445     C100-H236=1.0990     O101-C100=1.4343     O101-C102=1.3235     C102-O101=1.3235     
C102-O103=1.2075     C102-C104=1.5124     O103-C102=1.2075     C104-C102=1.5124     C104-C105=1.5462     C104-H237=1.0929     
C104-H238=1.0915     C105-C104=1.5462     C105-O106=1.3976     C105-C107=1.5276     C105-H239=1.0926     O106-C105=1.3976     
O106-H240=0.9689     C107-C105=1.5276     C107-O108=1.2130     C107-O109=1.3059     O108-C107=1.2130     O109-C107=1.3059     
O109-H241=0.9860     C110-C52=1.5531      C110-C100=1.5445     C110-C111=1.5259     C110-H242=1.0965     C111-C110=1.5259     
C111-H243=1.0871     C111-H244=1.0854     C111-H245=1.0839     O112-C76=1.4172      O112-C81=1.4099      H113-C1=1.0874       
H114-C1=1.0919       H115-C1=1.0919       H116-C6=1.0877       H117-C6=1.0884       H118-C6=1.0825       H119-C7=1.0869       
H120-C7=1.0867       H121-C7=1.0852       H122-C8=1.0987       H123-O9=0.9685       H124-C10=1.0996      H125-C11=1.0852      
H126-C11=1.0865      H127-C11=1.0858      H128-C15=1.0870      H129-C15=1.0876      H130-C15=1.0872      H131-C16=1.0877      
H132-C16=1.0865      H133-C16=1.0871      H134-C17=1.0839      H135-C18=1.0795      H136-N21=1.0089      H137-C22=1.0932      
H138-C23=1.1054      H139-O24=0.9706      H140-C25=1.0938      H141-C26=1.0872      H142-C26=1.0877      H143-C26=1.0882      
H144-C27=1.0871      H145-C27=1.0867      H146-C27=1.0878      H147-C28=1.0940      H148-O29=0.9661      H149-C30=1.0898      
H150-C31=1.0883      H151-C31=1.0875      H152-C31=1.0888      H153-C32=1.0826      H154-C34=1.0838      H155-C34=1.0908      
H156-C34=1.0842      H157-C35=1.1023      H158-O36=0.9623      H159-C37=1.0959      H160-C38=1.0872      H161-C38=1.0870      
H162-C38=1.0888      H163-C39=1.0888      H164-C39=1.0895      H165-C40=1.0899      H166-C40=1.0915      H167-C41=1.1038      
H168-O42=0.9634      H169-C43=1.0979      H170-C44=1.0869      H171-C44=1.0865      H172-C44=1.0868      H173-N47=1.0084      
H174-C48=1.0909      H175-C49=1.0970      H176-C50=1.0877      H177-C50=1.0831      H178-C50=1.0871      H179-O51=0.9644      
H180-C52=1.0916      H181-C56=1.0930      H182-C57=1.1030      H183-O58=0.9654      H184-O61=0.9700      H185-N62=1.0116      
H186-C65=1.0801      H187-C66=1.0844      H188-C67=1.0856      H189-C68=1.0834      H190-C69=1.0924      H191-C69=1.0890      
H192-C70=1.0962      H193-C70=1.0906      H194-C71=1.0816      H195-C72=1.0844      H196-C73=1.0853      H197-C74=1.0823      
H198-C75=1.0894      H199-C75=1.0910      H200-C76=1.1024      H201-C77=1.0906      H202-C77=1.0923      H203-C78=1.0961      
H204-C79=1.0879      H205-C79=1.0876      H206-C79=1.0878      H207-C80=1.0912      H208-C80=1.0924      H209-C81=1.0986      
H210-C82=1.0951      H211-C82=1.0901      H212-C83=1.1026      H213-O84=0.9642      H214-C85=1.0906      H215-C86=1.0878      
H216-C86=1.0843      H217-C86=1.0848      H218-C87=1.0929      H219-O88=0.9627      H220-C90=1.0877      H221-C90=1.0873      
H222-C90=1.0889      H223-C91=1.0864      H224-C92=1.1058      H225-C93=1.0872      H226-C93=1.0885      H227-C93=1.0841      
H228-C94=1.1059      H229-O95=0.9643      H230-C97=1.0873      H231-C97=1.0878      H232-C97=1.0877      H233-C98=1.0818      
H234-C99=1.0938      H235-C99=1.0903      H236-C100=1.0990     H237-C104=1.0929     H238-C104=1.0915     H239-C105=1.0926     
H240-O106=0.9689     H241-O109=0.9860     H242-C110=1.0965     H243-C111=1.0871     H244-C111=1.0854     H245-C111=1.0839     
 C  H  Rav=1.0898 sigma=0.0056  Rmin=1.0795  Rmax=1.1059   117
 C  C  Rav=1.5065 sigma=0.0640  Rmin=1.3247  Rmax=1.5651    77
 N  H  Rav=1.0097 sigma=0.0014  Rmin=1.0084  Rmax=1.0116     3
 N  C  Rav=1.4018 sigma=0.0448  Rmin=1.3536  Rmax=1.4574     6
 O  H  Rav=0.9674 sigma=0.0060  Rmin=0.9623  Rmax=0.9860    13
 O  C  Rav=1.3393 sigma=0.0915  Rmin=1.1966  Rmax=1.4371    30

 selected bond angles (degree)
 --------------------
H113-C1-O2=106.47              H114-C1-O2=110.26              H114-C1-H113=110.56            H115-C1-O2=109.79              
H115-C1-H113=111.10            H115-C1-H114=108.66            C3-O2-C1=115.02                O4-C3-O2=122.71                
C5-C3-O2=112.59                C5-C3-O4=124.62                C6-C5-C3=109.83                C7-C5-C3=107.54                
C7-C5-C6=107.61                C8-C5-C3=112.22                C8-C5-C6=112.33                C8-C5-C7=107.04                
H116-C6-C5=109.97              H117-C6-C5=109.11              H117-C6-H116=108.10            H118-C6-C5=112.60              
H118-C6-H116=109.12            H118-C6-H117=107.83            H119-C7-C5=109.91              H120-C7-C5=109.85              
H120-C7-H119=109.20            H121-C7-C5=111.00              H121-C7-H119=108.12            H121-C7-H120=108.72            
O9-C8-C5=111.09                C10-C8-C5=119.74               C10-C8-O9=108.43               H122-C8-C5=105.55              
H122-C8-O9=104.51              H122-C8-C10=106.32             H123-O9-C8=107.67              C11-C10-C8=114.76              
C12-C10-C8=112.30              C12-C10-C11=113.29             H124-C10-C8=103.90             H124-C10-C11=107.12            
H124-C10-C12=104.28            

 selected dihedral angles (degree)
 ---------------------------------
C3-O2-C1-H113=176.79          C3-O2-C1-H114=296.75          C3-O2-C1-H115= 56.43          O4-C3-O2-C1=  2.94            
C5-C3-O2-C1=179.83            C6-C5-C3-O2=316.23            C6-C5-C3-O4=133.06            C7-C5-C3-O2=199.40            
C7-C5-C3-O4= 16.23            C8-C5-C3-O2= 81.94            C8-C5-C3-O4=258.77            H116-C6-C5-C3=173.92          
H116-C6-C5-C7=290.71          H116-C6-C5-C8= 48.27          H117-C6-C5-C3=292.33          H117-C6-C5-C7= 49.11          
H117-C6-C5-C8=166.68          H118-C6-C5-C3= 52.01          H118-C6-C5-C7=168.79          H118-C6-C5-C8=286.36          
H119-C7-C5-C3= 61.62          H119-C7-C5-C6=303.35          H119-C7-C5-C8=182.40          H120-C7-C5-C3=181.79          
H120-C7-C5-C6= 63.52          H120-C7-C5-C8=302.57          H121-C7-C5-C3=302.06          H121-C7-C5-C6=183.79          
H121-C7-C5-C8= 62.84          O9-C8-C5-C3= 76.35            O9-C8-C5-C6=200.69            O9-C8-C5-C7=318.60            
C10-C8-C5-C3=308.72           C10-C8-C5-C6= 73.05           C10-C8-C5-C7=190.96           H122-C8-C5-C3=189.06          
H122-C8-C5-C6=313.40          H122-C8-C5-C7= 71.30          H123-O9-C8-C5=297.62          H123-O9-C8-C10= 71.18         
H123-O9-C8-H122=184.26        C11-C10-C8-C5=304.82          C11-C10-C8-O9=175.97          C11-C10-C8-H122= 64.09        
C12-C10-C8-C5= 76.10          C12-C10-C8-O9=307.25          C12-C10-C8-H122=195.37        H124-C10-C8-C5=188.20         
H124-C10-C8-O9= 59.35         H124-C10-C8-H122=307.47       
           -------------------------------------------------
          |                Final Singlepoint                |
           -------------------------------------------------

          ...................................................
          :                      SETUP                      :
          :.................................................:
          :  # basis functions                 581          :
          :  # atomic orbitals                 581          :
          :  # shells                          357          :
          :  # electrons                       636          :
          :  max. iterations                   250          :
          :  Hamiltonian                  GFN2-xTB          :
          :  restarted?                      false          :
          :  GBSA solvation                  false          :
          :  PC potential                    false          :
          :  electronic temp.          300.0000000     K    :
          :  accuracy                    1.0000000          :
          :  -> integral cutoff          0.2500000E+02      :
          :  -> integral neglect         0.1000000E-07      :
          :  -> SCF convergence          0.1000000E-05 Eh   :
          :  -> wf. convergence          0.1000000E-03 e    :
          :  Broyden damping             0.4000000          :
          :  net charge                          0          :
          :  unpaired electrons                  0          :
          ...................................................

 iter      E             dE          RMSdq      gap      omega  full diag
   1   -364.2939897 -0.364294E+03  0.707E-05    2.78       0.0  T
   2   -364.2939897 -0.796376E-10  0.452E-05    2.78     141.4  T
   3   -364.2939897  0.384830E-10  0.314E-05    2.78     203.4  T

   *** convergence criteria satisfied after 3 iterations ***

         #    Occupation            Energy/Eh            Energy/eV
      -------------------------------------------------------------
         1        2.0000           -0.7612946             -20.7159
       ...           ...                  ...                  ...
       312        2.0000           -0.3854318             -10.4881
       313        2.0000           -0.3836600             -10.4399
       314        2.0000           -0.3805250             -10.3546
       315        2.0000           -0.3783342             -10.2950
       316        2.0000           -0.3779344             -10.2841
       317        2.0000           -0.3744156             -10.1884
       318        2.0000           -0.3692300             -10.0473 (HOMO)
       319                         -0.2671343              -7.2691 (LUMO)
       320                         -0.2638195              -7.1789
       321                         -0.2573309              -7.0023
       322                         -0.2540788              -6.9138
       323                         -0.2477746              -6.7423
       ...                                ...                  ...
       581                          0.6860162              18.6675
      -------------------------------------------------------------
                  HL-Gap            0.1020956 Eh            2.7782 eV
             Fermi-level           -0.3181822 Eh           -8.6582 eV

 SCC (total)                   0 d,  0 h,  0 min,  0.461 sec
 SCC setup                      ...        0 min,  0.002 sec (  0.333%)
 Dispersion                     ...        0 min,  0.003 sec (  0.583%)
 classical contributions        ...        0 min,  0.001 sec (  0.148%)
 integral evaluation            ...        0 min,  0.039 sec (  8.463%)
 iterations                     ...        0 min,  0.145 sec ( 31.500%)
 molecular gradient             ...        0 min,  0.264 sec ( 57.299%)
 printout                       ...        0 min,  0.008 sec (  1.672%)

         :::::::::::::::::::::::::::::::::::::::::::::::::::::
         ::                     SUMMARY                     ::
         :::::::::::::::::::::::::::::::::::::::::::::::::::::
         :: total energy            -360.072621237123 Eh    ::
         :: gradient norm              0.000519879438 Eh/a0 ::
         :: HOMO-LUMO gap              2.778163953576 eV    ::
         ::.................................................::
         :: SCC energy              -364.277064725393 Eh    ::
         :: -> isotropic ES            0.664295025075 Eh    ::
         :: -> anisotropic ES          0.018190419896 Eh    ::
         :: -> anisotropic XC          0.079962346495 Eh    ::
         :: -> dispersion             -0.312237088011 Eh    ::
         :: repulsion energy           4.204443488270 Eh    ::
         :: add. restraining           0.000000000000 Eh    ::
         :: total charge              -0.000000000000 e     ::
         :::::::::::::::::::::::::::::::::::::::::::::::::::::

           -------------------------------------------------
          |                Property Printout                |
           -------------------------------------------------

    * Orbital Energies and Occupations

         #    Occupation            Energy/Eh            Energy/eV
      -------------------------------------------------------------
         1        2.0000           -0.7612946             -20.7159
       ...           ...                  ...                  ...
       306        2.0000           -0.3977518             -10.8234
       307        2.0000           -0.3965331             -10.7902
       308        2.0000           -0.3928673             -10.6905
       309        2.0000           -0.3921205             -10.6701
       310        2.0000           -0.3904898             -10.6258
       311        2.0000           -0.3893139             -10.5938
       312        2.0000           -0.3854318             -10.4881
       313        2.0000           -0.3836600             -10.4399
       314        2.0000           -0.3805250             -10.3546
       315        2.0000           -0.3783342             -10.2950
       316        2.0000           -0.3779344             -10.2841
       317        2.0000           -0.3744156             -10.1884
       318        2.0000           -0.3692300             -10.0473 (HOMO)
       319                         -0.2671343              -7.2691 (LUMO)
       320                         -0.2638195              -7.1789
       321                         -0.2573309              -7.0023
       322                         -0.2540788              -6.9138
       323                         -0.2477746              -6.7423
       324                         -0.2422865              -6.5930
       325                         -0.2370865              -6.4515
       326                         -0.2210076              -6.0139
       327                         -0.2183976              -5.9429
       328                         -0.2030020              -5.5240
       329                         -0.2007702              -5.4632
       ...                                ...                  ...
       581                          0.6860162              18.6675
      -------------------------------------------------------------
                  HL-Gap            0.1020956 Eh            2.7782 eV
             Fermi-level           -0.3181822 Eh           -8.6582 eV

     #   Z          covCN         q      C6AA      α(0)
     1   6          3.661     0.038    20.210     6.450
     2   8          1.704    -0.272    18.507     5.808
     3   6          2.734     0.360    20.885     7.482
     4   8          0.856    -0.400    21.672     6.241
     5   6          3.895    -0.014    20.762     6.477
     6   6          3.760    -0.116    22.777     6.804
     7   6          3.765    -0.109    22.626     6.780
     8   6          3.726     0.113    18.828     6.196
     9   8          1.656    -0.445    21.743     6.295
    10   6          3.847    -0.052    21.476     6.592
    11   6          3.752    -0.115    22.758     6.803
    12   6          2.823     0.240    22.989     7.856
    13   8          0.857    -0.363    20.948     6.136
    14   6          3.902     0.007    20.410     6.422
    15   6          3.767    -0.103    22.515     6.763
    16   6          3.761    -0.105    22.555     6.770
    17   6          2.908    -0.017    28.445     8.745
    18   6          2.896    -0.079    29.961     8.974
    19   6          2.765     0.278    22.292     7.732
    20   8          0.858    -0.456    22.837     6.407
    21   7          2.694    -0.187    25.058     7.435
    22   6          3.790     0.021    20.227     6.405
    23   6          3.728     0.107    18.920     6.210
    24   8          1.655    -0.469    22.231     6.365
    25   6          3.848    -0.029    21.057     6.527
    26   6          3.755    -0.117    22.805     6.809
    27   6          3.754    -0.110    22.656     6.787
    28   6          3.726     0.105    18.958     6.217
    29   8          1.655    -0.455    21.941     6.323
    30   6          3.852    -0.037    21.199     6.549
    31   6          3.755    -0.108    22.618     6.781
    32   6          2.900    -0.062    29.546     8.913
    33   6          2.938    -0.022    28.549     8.763
    34   6          3.757    -0.119    22.838     6.813
    35   6          3.732     0.105    18.939     6.212
    36   8          1.655    -0.441    21.653     6.282
    37   6          3.847    -0.018    20.867     6.498
    38   6          3.755    -0.109    22.644     6.785
    39   6          3.803    -0.071    21.856     6.656
    40   6          3.802    -0.064    21.719     6.635
    41   6          3.725     0.118    18.748     6.182
    42   8          1.656    -0.435    21.543     6.266
    43   6          3.854    -0.058    21.573     6.606
    44   6          3.755    -0.113    22.716     6.796
    45   6          2.751     0.278    22.303     7.733
    46   8          0.858    -0.465    23.016     6.432
    47   7          2.690    -0.187    25.056     7.434
    48   6          3.784     0.038    19.958     6.363
    49   6          3.725     0.119    18.730     6.180
    50   6          3.753    -0.132    23.087     6.852
    51   8          1.656    -0.454    21.929     6.322
    52   6          3.726     0.099    19.051     6.232
    53   8          1.704    -0.276    18.585     5.821
    54   6          2.696     0.351    21.039     7.507
    55   8          0.857    -0.359    20.878     6.126
    56   6          3.789     0.014    20.354     6.425
    57   6          3.727     0.092    19.159     6.249
    58   8          1.656    -0.429    21.411     6.246
    59   6          2.689     0.355    20.971     7.495
    60   8          0.856    -0.382    21.320     6.191
    61   8          1.660    -0.366    20.203     6.068
    62   7          2.697    -0.179    24.886     7.409
    63   6          2.752     0.285    22.166     7.709
    64   8          0.859    -0.424    22.164     6.312
    65   6          2.896    -0.072    29.791     8.949
    66   6          2.895    -0.030    28.753     8.792
    67   6          2.893    -0.047    29.177     8.856
    68   6          2.893    -0.026    28.651     8.776
    69   6          3.807    -0.059    21.628     6.620
    70   6          3.807    -0.056    21.580     6.613
    71   6          2.891    -0.037    28.930     8.818
    72   6          2.892    -0.041    29.029     8.834
    73   6          2.893    -0.038    28.932     8.819
    74   6          2.891    -0.043    29.071     8.840
    75   6          3.807    -0.071    21.852     6.654
    76   6          3.746     0.122    18.663     6.162
    77   6          3.808    -0.072    21.866     6.656
    78   6          3.854    -0.009    20.703     6.471
    79   6          3.755    -0.109    22.630     6.783
    80   6          3.808    -0.072    21.880     6.659
    81   6          3.742     0.109    18.856     6.195
    82   6          3.799    -0.081    22.050     6.686
    83   6          3.723     0.112    18.854     6.201
    84   8          1.655    -0.454    21.923     6.321
    85   6          3.849    -0.021    20.913     6.505
    86   6          3.758    -0.121    22.865     6.817
    87   6          3.732     0.107    18.915     6.208
    88   8          1.654    -0.454    21.922     6.320
    89   6          2.936    -0.002    28.069     8.689
    90   6          3.762    -0.106    22.578     6.773
    91   6          2.899    -0.066    29.651     8.928
    92   6          3.847    -0.021    20.916     6.505
    93   6          3.755    -0.106    22.575     6.775
    94   6          3.729     0.111    18.853     6.199
    95   8          1.656    -0.453    21.903     6.318
    96   6          2.938     0.009    27.828     8.652
    97   6          3.759    -0.119    22.835     6.812
    98   6          2.901    -0.053    29.318     8.878
    99   6          3.805    -0.070    21.837     6.653
   100   6          3.751     0.102    18.951     6.208
   101   8          1.704    -0.240    17.980     5.725
   102   6          2.714     0.359    20.907     7.485
   103   8          0.856    -0.437    22.437     6.351
   104   6          3.805    -0.105    22.495     6.752
   105   6          3.726     0.091    19.171     6.251
   106   8          1.656    -0.431    21.469     6.255
   107   6          2.691     0.354    20.986     7.497
   108   8          0.856    -0.447    22.653     6.381
   109   8          1.658    -0.360    20.083     6.050
   110   6          3.846    -0.032    21.107     6.535
   111   6          3.752    -0.127    23.005     6.840
   112   8          1.701    -0.323    19.404     5.947
   113   1          0.925     0.058     2.228     2.334
   114   1          0.924     0.059     2.210     2.325
   115   1          0.924     0.068     2.109     2.271
   116   1          0.925     0.044     2.399     2.422
   117   1          0.925     0.046     2.365     2.405
   118   1          0.925     0.054     2.266     2.354
   119   1          0.925     0.043     2.404     2.425
   120   1          0.925     0.047     2.363     2.404
   121   1          0.925     0.068     2.106     2.269
   122   1          0.923     0.049     2.336     2.390
   123   1          0.805     0.312     0.687     1.302
   124   1          0.923     0.074     2.042     2.235
   125   1          0.925     0.053     2.277     2.360
   126   1          0.925     0.056     2.246     2.343
   127   1          0.925     0.051     2.311     2.377
   128   1          0.925     0.064     2.154     2.295
   129   1          0.925     0.046     2.375     2.410
   130   1          0.925     0.044     2.393     2.419
   131   1          0.925     0.049     2.330     2.387
   132   1          0.925     0.043     2.409     2.427
   133   1          0.925     0.052     2.300     2.371
   134   1          0.925     0.068     2.103     2.268
   135   1          0.926     0.040     2.454     2.450
   136   1          0.860     0.167     1.291     1.780
   137   1          0.924     0.078     2.003     2.213
   138   1          0.922     0.009     2.906     2.666
   139   1          0.804     0.329     0.639     1.256
   140   1          0.924     0.035     2.514     2.480
   141   1          0.925     0.043     2.403     2.424
   142   1          0.925     0.049     2.334     2.389
   143   1          0.925     0.034     2.535     2.490
   144   1          0.925     0.039     2.460     2.453
   145   1          0.925     0.045     2.382     2.413
   146   1          0.925     0.041     2.435     2.440
   147   1          0.924     0.044     2.398     2.422
   148   1          0.805     0.307     0.701     1.316
   149   1          0.925     0.068     2.104     2.268
   150   1          0.925     0.042     2.428     2.437
   151   1          0.925     0.036     2.499     2.472
   152   1          0.925     0.041     2.432     2.439
   153   1          0.925     0.030     2.592     2.518
   154   1          0.925     0.058     2.221     2.330
   155   1          0.924     0.043     2.411     2.428
   156   1          0.925     0.055     2.254     2.348
   157   1          0.923     0.013     2.836     2.634
   158   1          0.805     0.284     0.771     1.379
   159   1          0.924     0.027     2.635     2.539
   160   1          0.925     0.047     2.364     2.404
   161   1          0.925     0.041     2.431     2.438
   162   1          0.925     0.028     2.612     2.527
   163   1          0.925     0.068     2.108     2.270
   164   1          0.925     0.061     2.186     2.312
   165   1          0.925     0.059     2.210     2.325
   166   1          0.924     0.028     2.619     2.531
   167   1          0.923     0.007     2.940     2.681
   168   1          0.805     0.289     0.756     1.366
   169   1          0.924     0.047     2.359     2.402
   170   1          0.925     0.061     2.188     2.313
   171   1          0.925     0.053     2.286     2.364
   172   1          0.925     0.056     2.251     2.346
   173   1          0.860     0.190     1.158     1.686
   174   1          0.924     0.079     1.991     2.207
   175   1          0.924     0.026     2.649     2.545
   176   1          0.925     0.048     2.342     2.393
   177   1          0.925     0.056     2.243     2.342
   178   1          0.925     0.072     2.062     2.245
   179   1          0.805     0.306     0.703     1.317
   180   1          0.924     0.048     2.351     2.398
   181   1          0.924     0.078     2.004     2.214
   182   1          0.923     0.072     2.069     2.250
   183   1          0.805     0.321     0.662     1.278
   184   1          0.804     0.342     0.607     1.224
   185   1          0.860     0.206     1.074     1.623
   186   1          0.926     0.074     2.041     2.234
   187   1          0.925     0.056     2.244     2.343
   188   1          0.925     0.023     2.695     2.567
   189   1          0.925     0.030     2.587     2.515
   190   1          0.924     0.052     2.289     2.366
   191   1          0.925     0.055     2.262     2.352
   192   1          0.924     0.038     2.475     2.460
   193   1          0.924     0.042     2.421     2.433
   194   1          0.925     0.038     2.479     2.462
   195   1          0.925     0.032     2.553     2.499
   196   1          0.925     0.031     2.570     2.507
   197   1          0.925     0.024     2.667     2.554
   198   1          0.925     0.069     2.095     2.263
   199   1          0.924     0.047     2.352     2.398
   200   1          0.923     0.009     2.912     2.669
   201   1          0.924     0.033     2.544     2.494
   202   1          0.924     0.043     2.411     2.428
   203   1          0.924     0.024     2.671     2.556
   204   1          0.925     0.038     2.481     2.463
   205   1          0.925     0.037     2.486     2.465
   206   1          0.925     0.035     2.517     2.481
   207   1          0.924     0.029     2.608     2.525
   208   1          0.924     0.044     2.391     2.418
   209   1          0.923     0.038     2.474     2.460
   210   1          0.924     0.029     2.606     2.525
   211   1          0.925     0.041     2.432     2.439
   212   1          0.923     0.020     2.738     2.588
   213   1          0.805     0.285     0.767     1.375
   214   1          0.924     0.053     2.281     2.362
   215   1          0.925     0.033     2.543     2.494
   216   1          0.925     0.062     2.175     2.306
   217   1          0.925     0.060     2.195     2.317
   218   1          0.924     0.038     2.479     2.462
   219   1          0.805     0.278     0.790     1.396
   220   1          0.925     0.052     2.292     2.368
   221   1          0.925     0.034     2.530     2.487
   222   1          0.925     0.048     2.344     2.394
   223   1          0.925     0.031     2.565     2.505
   224   1          0.922     0.026     2.643     2.543
   225   1          0.925     0.048     2.339     2.392
   226   1          0.925     0.032     2.564     2.504
   227   1          0.925     0.048     2.345     2.394
   228   1          0.922     0.008     2.931     2.677
   229   1          0.805     0.281     0.780     1.387
   230   1          0.925     0.073     2.054     2.241
   231   1          0.925     0.057     2.237     2.339
   232   1          0.925     0.040     2.442     2.444
   233   1          0.925     0.039     2.468     2.457
   234   1          0.924     0.054     2.267     2.354
   235   1          0.924     0.082     1.962     2.191
   236   1          0.923     0.053     2.287     2.365
   237   1          0.924     0.101     1.777     2.085
   238   1          0.924     0.079     1.990     2.206
   239   1          0.924     0.083     1.945     2.181
   240   1          0.804     0.314     0.681     1.296
   241   1          0.802     0.378     0.528     1.141
   242   1          0.924     0.059     2.216     2.328
   243   1          0.925     0.046     2.368     2.407
   244   1          0.925     0.054     2.276     2.359
   245   1          0.925     0.084     1.936     2.176

 Mol. C6AA /au·bohr⁶  :     519696.757046
 Mol. C8AA /au·bohr⁸  :   11519700.525989
 Mol. α(0) /au        :       1075.845387


Wiberg/Mayer (AO) data.
largest (>0.10) Wiberg bond orders for each atom

 ---------------------------------------------------------------------------
     #   Z sym  total        # sym  WBO       # sym  WBO       # sym  WBO
 ---------------------------------------------------------------------------
     1   6      3.929 --   113      0.983   114      0.977   115      0.974
                             2      0.960
     2   8      2.288 --     3      1.110     1      0.960     4      0.165
     3   6      3.910 --     4      1.769     2      1.110     5      0.944
     4   8      2.050 --     3      1.769     2      0.165
     5   6      3.989 --     7      0.994     6      0.991     3      0.944
                             8      0.937
     6   6      3.993 --     5      0.991   117      0.984   116      0.983
                           118      0.978
     7   6      3.990 --     5      0.994   120      0.985   119      0.985
                           121      0.981
     8   6      3.959 --     9      1.011    10      0.966   122      0.957
                             5      0.937
     9   8      1.973 --     8      1.011   123      0.872
    10   6      3.992 --    12      0.990    11      0.987     8      0.966
                           124      0.927
    11   6      3.991 --    10      0.987   126      0.981   125      0.979
                           127      0.977
    12   6      3.899 --    13      1.847    10      0.990    14      0.930
    13   8      2.095 --    12      1.847
    14   6      3.991 --    17      1.016    16      0.974    15      0.968
                            12      0.930
    15   6      3.989 --   129      0.986   130      0.985   128      0.979
                            14      0.968
    16   6      3.993 --   133      0.983   132      0.983   131      0.980
                            14      0.974
    17   6      3.981 --    18      1.854    14      1.016   134      0.955
    18   6      3.987 --    17      1.854    19      1.020   135      0.961
    19   6      3.949 --    20      1.646    21      1.215    18      1.020
    20   8      1.979 --    19      1.646    21      0.184
    21   7      3.419 --    19      1.215    22      0.992   136      0.939
                            20      0.184
    22   6      3.962 --    21      0.992    23      0.974   137      0.951
                            28      0.943
    23   6      3.958 --    24      0.995    22      0.974    25      0.970
                           138      0.956
    24   8      1.960 --    23      0.995   139      0.848
    25   6      3.995 --    27      1.011    26      1.008    23      0.970
                           140      0.965
    26   6      3.994 --    25      1.008   143      0.986   141      0.985
                           142      0.975
    27   6      3.995 --    25      1.011   144      0.985   145      0.984
                           146      0.983
    28   6      3.952 --    29      1.005   147      0.960    30      0.954
                            22      0.943
    29   8      1.973 --    28      1.005   148      0.880
    30   6      3.992 --    32      1.011    31      1.010    28      0.954
                           149      0.939
    31   6      3.996 --    30      1.010   151      0.986   152      0.983
                           150      0.981
    32   6      3.984 --    33      1.881    30      1.011   153      0.962
    33   6      3.985 --    32      1.881    34      1.027    35      0.983
    34   6      3.995 --    33      1.027   154      0.971   156      0.968
                           155      0.964
    35   6      3.952 --    33      0.983    36      0.981    37      0.963
                           157      0.958
    36   8      1.965 --    35      0.981   158      0.903
    37   6      3.993 --    38      1.010    39      0.995   159      0.966
                            35      0.963
    38   6      3.995 --    37      1.010   162      0.986   160      0.986
                           161      0.983
    39   6      3.990 --    40      1.007    37      0.995   164      0.973
                           163      0.966
    40   6      3.993 --    39      1.007    41      0.992   165      0.972
                           166      0.966
    41   6      3.955 --    42      0.995    40      0.992   167      0.955
                            43      0.946
    42   8      1.973 --    41      0.995   168      0.898
    43   6      3.991 --    44      1.008    45      0.962   169      0.952
                            41      0.946
    44   6      3.989 --    43      1.008   171      0.983   172      0.982
                           170      0.980
    45   6      3.937 --    46      1.641    47      1.255    43      0.962
    46   8      1.991 --    45      1.641    47      0.179
    47   7      3.428 --    45      1.255    48      0.983   173      0.934
                            46      0.179
    48   6      3.965 --    47      0.983    49      0.972   174      0.958
                            52      0.954
    49   6      3.955 --    50      1.004    51      0.986    48      0.972
                           175      0.953
    50   6      3.989 --    49      1.004   176      0.985   177      0.977
                           178      0.968
    51   8      1.955 --    49      0.986   179      0.885
    52   6      3.915 --   110      0.969    48      0.954   180      0.953
                            53      0.922
    53   8      2.296 --    54      1.121    52      0.922    55      0.163
    54   6      3.918 --    55      1.782    53      1.121    56      0.934
    55   8      2.074 --    54      1.782    53      0.163
    56   6      3.981 --    62      1.009    57      0.950    54      0.934
                           181      0.933
    57   6      3.965 --    58      1.007    56      0.950    59      0.931
                           182      0.922
    58   8      1.971 --    57      1.007   183      0.876
    59   6      3.917 --    60      1.789    61      1.143    57      0.931
    60   8      2.066 --    59      1.789    61      0.177
    61   8      2.211 --    59      1.143   184      0.857    60      0.177
    62   7      3.427 --    63      1.218    56      1.009   185      0.922
                            64      0.193
    63   6      3.943 --    64      1.699    62      1.218    65      0.969
    64   8      2.017 --    63      1.699    62      0.193
    65   6      3.988 --    66      1.900    63      0.969   186      0.944
    66   6      3.990 --    65      1.900    67      1.052   187      0.944
    67   6      3.989 --    68      1.895    66      1.052   188      0.950
    68   6      3.990 --    67      1.895    69      1.033   189      0.966
    69   6      3.995 --    68      1.033    70      0.980   191      0.971
                           190      0.957
    70   6      3.998 --    71      1.027    69      0.980   193      0.971
                           192      0.957
    71   6      3.990 --    72      1.915    70      1.027   194      0.964
    72   6      3.990 --    71      1.915    73      1.039   195      0.949
    73   6      3.990 --    74      1.915    72      1.039   196      0.952
    74   6      3.990 --    73      1.915    75      1.024   197      0.967
    75   6      3.991 --    74      1.024    76      0.969   199      0.969
                           198      0.965
    76   6      3.952 --    77      0.989    75      0.969   112      0.966
                           200      0.954
    77   6      3.997 --    78      0.996    76      0.989   201      0.975
                           202      0.974
    78   6      3.996 --    79      1.007    80      0.998    77      0.996
                           203      0.967
    79   6      3.996 --    78      1.007   204      0.986   206      0.986
                           205      0.986
    80   6      3.997 --    78      0.998    81      0.983   207      0.976
                           208      0.975
    81   6      3.956 --    80      0.983    82      0.982   112      0.982
                           209      0.959
    82   6      3.995 --    83      0.989    81      0.982   210      0.970
                           211      0.967
    83   6      3.948 --    82      0.989    84      0.978    85      0.977
                           212      0.960
    84   8      1.963 --    83      0.978   213      0.897
    85   6      3.990 --    86      1.008    83      0.977    87      0.974
                           214      0.961
    86   6      3.991 --    85      1.008   215      0.984   216      0.977
                           217      0.976
    87   6      3.947 --    89      0.990    85      0.974    88      0.959
                           218      0.941
    88   8      1.949 --    87      0.959   219      0.904
    89   6      3.987 --    91      1.882    90      1.019    87      0.990
    90   6      3.995 --    89      1.019   221      0.984   222      0.974
                           220      0.966
    91   6      3.984 --    89      1.882    92      1.009   223      0.961
    92   6      3.992 --    91      1.009    93      0.990    94      0.974
                           224      0.951
    93   6      3.993 --    92      0.990   226      0.987   227      0.984
                           225      0.982
    94   6      3.948 --    96      0.978    92      0.974    95      0.971
                           228      0.954
    95   8      1.954 --    94      0.971   229      0.898
    96   6      3.985 --    98      1.876    97      1.027    94      0.978
    97   6      3.993 --    96      1.027   232      0.983   231      0.966
                           230      0.959
    98   6      3.984 --    96      1.876    99      1.019   233      0.962
    99   6      3.989 --    98      1.019   100      0.987   235      0.958
                           234      0.950
   100   6      3.917 --    99      0.987   110      0.973   236      0.948
                           101      0.920
   101   8      2.346 --   102      1.173   100      0.920   103      0.179
   102   6      3.922 --   103      1.713   101      1.173   104      0.971
   103   8      2.019 --   102      1.713   101      0.179
   104   6      3.990 --   102      0.971   238      0.960   105      0.957
                           237      0.940
   105   6      3.962 --   106      1.016   104      0.957   239      0.952
                           107      0.939
   106   8      1.973 --   105      1.016   240      0.872
   107   6      3.913 --   108      1.686   109      1.225   105      0.939
   108   8      2.007 --   107      1.686   109      0.185
   109   8      2.254 --   107      1.225   241      0.792   108      0.185
   110   6      3.986 --   111      1.010   100      0.973    52      0.969
                           242      0.956
   111   6      3.987 --   110      1.010   243      0.982   244      0.980
                           245      0.973
   112   8      2.089 --    81      0.982    76      0.966
   113   1      0.996 --     1      0.983
   114   1      0.996 --     1      0.977
   115   1      0.995 --     1      0.974
   116   1      0.998 --     6      0.983
   117   1      0.998 --     6      0.984
   118   1      0.997 --     6      0.978
   119   1      0.998 --     7      0.985
   120   1      0.997 --     7      0.985
   121   1      0.995 --     7      0.981
   122   1      0.997 --     8      0.957
   123   1      0.903 --     9      0.872
   124   1      0.994 --    10      0.927
   125   1      0.997 --    11      0.979
   126   1      0.997 --    11      0.981
   127   1      0.997 --    11      0.977
   128   1      0.995 --    15      0.979
   129   1      0.998 --    15      0.986
   130   1      0.998 --    15      0.985
   131   1      0.997 --    16      0.980
   132   1      0.998 --    16      0.983
   133   1      0.997 --    16      0.983
   134   1      0.995 --    17      0.955
   135   1      0.998 --    18      0.961
   136   1      0.972 --    21      0.939
   137   1      0.994 --    22      0.951
   138   1      1.000 --    23      0.956
   139   1      0.891 --    24      0.848
   140   1      0.998 --    25      0.965
   141   1      0.998 --    26      0.985
   142   1      0.997 --    26      0.975
   143   1      0.999 --    26      0.986
   144   1      0.998 --    27      0.985
   145   1      0.998 --    27      0.984
   146   1      0.998 --    27      0.983
   147   1      0.998 --    28      0.960
   148   1      0.906 --    29      0.880
   149   1      0.995 --    30      0.939
   150   1      0.998 --    31      0.981
   151   1      0.999 --    31      0.986
   152   1      0.998 --    31      0.983
   153   1      0.999 --    32      0.962
   154   1      0.996 --    34      0.971
   155   1      0.998 --    34      0.964
   156   1      0.997 --    34      0.968
   157   1      1.000 --    35      0.958
   158   1      0.919 --    36      0.903
   159   1      0.999 --    37      0.966
   160   1      0.998 --    38      0.986
   161   1      0.998 --    38      0.983
   162   1      0.999 --    38      0.986
   163   1      0.995 --    39      0.966
   164   1      0.995 --    39      0.973
   165   1      0.996 --    40      0.972
   166   1      0.999 --    40      0.966
   167   1      1.000 --    41      0.955
   168   1      0.917 --    42      0.898
   169   1      0.997 --    43      0.952
   170   1      0.996 --    44      0.980
   171   1      0.997 --    44      0.983
   172   1      0.996 --    44      0.982
   173   1      0.964 --    47      0.934
   174   1      0.993 --    48      0.958
   175   1      0.999 --    49      0.953
   176   1      0.998 --    50      0.985
   177   1      0.997 --    50      0.977
   178   1      0.994 --    50      0.968
   179   1      0.906 --    51      0.885
   180   1      0.998 --    52      0.953
   181   1      0.994 --    56      0.933
   182   1      0.994 --    57      0.922
   183   1      0.897 --    58      0.876
   184   1      0.882 --    61      0.857
   185   1      0.957 --    62      0.922
   186   1      0.994 --    65      0.944
   187   1      0.997 --    66      0.944
   188   1      0.999 --    67      0.950
   189   1      0.999 --    68      0.966
   190   1      0.997 --    69      0.957
   191   1      0.997 --    69      0.971
   192   1      0.998 --    70      0.957
   193   1      0.998 --    70      0.971
   194   1      0.998 --    71      0.964
   195   1      0.998 --    72      0.949
   196   1      0.999 --    73      0.952
   197   1      0.999 --    74      0.967
   198   1      0.995 --    75      0.965
   199   1      0.998 --    75      0.969
   200   1      1.000 --    76      0.954
   201   1      0.999 --    77      0.975
   202   1      0.998 --    77      0.974
   203   1      0.999 --    78      0.967
   204   1      0.999 --    79      0.986
   205   1      0.998 --    79      0.986
   206   1      0.998 --    79      0.986
   207   1      0.999 --    80      0.976
   208   1      0.998 --    80      0.975
   209   1      0.998 --    81      0.959
   210   1      0.999 --    82      0.970
   211   1      0.998 --    82      0.967
   212   1      1.000 --    83      0.960
   213   1      0.918 --    84      0.897
   214   1      0.997 --    85      0.961
   215   1      0.999 --    86      0.984
   216   1      0.996 --    86      0.977
   217   1      0.996 --    86      0.976
   218   1      0.998 --    87      0.941
   219   1      0.922 --    88      0.904
   220   1      0.997 --    90      0.966
   221   1      0.999 --    90      0.984
   222   1      0.997 --    90      0.974
   223   1      0.998 --    91      0.961
   224   1      0.999 --    92      0.951
   225   1      0.997 --    93      0.982
   226   1      0.999 --    93      0.987
   227   1      0.998 --    93      0.984
   228   1      1.000 --    94      0.954
   229   1      0.921 --    95      0.898
   230   1      0.995 --    97      0.959
   231   1      0.996 --    97      0.966
   232   1      0.998 --    97      0.983
   233   1      0.998 --    98      0.962
   234   1      0.996 --    99      0.950
   235   1      0.993 --    99      0.958
   236   1      0.997 --   100      0.948
   237   1      0.990 --   104      0.940
   238   1      0.994 --   104      0.960
   239   1      0.993 --   105      0.952
   240   1      0.901 --   106      0.872
   241   1      0.857 --   109      0.792
   242   1      0.996 --   110      0.956
   243   1      0.998 --   111      0.982
   244   1      0.997 --   111      0.980
   245   1      0.993 --   111      0.973
 ---------------------------------------------------------------------------

Topologies differ in total number of bonds
Writing topology from bond orders to xtbtopo.mol

molecular dipole:
                 x           y           z       tot (Debye)
 q only:       -1.359      -1.618       0.116
   full:       -1.374      -2.352       0.186       6.941
molecular quadrupole (traceless):
                xx          xy          yy          xz          yz          zz
 q only:      -52.803      43.271      30.630    -100.423      29.828      22.173
  q+dip:      -52.955      52.610      26.479    -120.525      40.680      26.476
   full:      -52.470      52.313      27.870    -122.296      40.102      24.599

           -------------------------------------------------
          |                Geometry Summary                 |
           -------------------------------------------------

      molecular mass/u    :     1588.9518370
   center of mass at/Å    :        0.1169039       0.0674403      -0.1603284
  moments of inertia/u·Å² :        0.2029246E+05   0.1149058E+06   0.1248084E+06
rotational constants/cm⁻¹ :        0.8307340E-03   0.1467082E-03   0.1350681E-03

 * 203 selected distances

     #   Z          #   Z                                           value/Å
     1   6          2   8                                         1.4193556
     2   8          3   6                                         1.3446592
     3   6          4   8                                         1.2012775
     5   6          6   6                                         1.5334466
     5   6          7   6                                         1.5366208
     8   6          9   8                                         1.4044500
    10   6         11   6                                         1.5291314
    12   6         13   8                                         1.2078030
    14   6         15   6                                         1.5389395
    14   6         16   6                                         1.5346085
    17   6         18   6                                         1.3300890
    19   6         20   8                                         1.2195486
    19   6         21   7                                         1.3608617
    21   7         22   6                                         1.4443024
    22   6         23   6                                         1.5403452 (max)
    23   6         24   8                                         1.4075935
    25   6         26   6                                         1.5299697
    25   6         27   6                                         1.5275023
    28   6         29   8                                         1.4055415
    30   6         31   6                                         1.5294980
    32   6         33   6                                         1.3296522
    35   6         36   8                                         1.4172816
    37   6         38   6                                         1.5290905
    39   6         40   6                                         1.5294935
    40   6         41   6                                         1.5292339
    41   6         42   8                                         1.4082336
    43   6         44   6                                         1.5264496
    45   6         46   8                                         1.2216055
    45   6         47   7                                         1.3536083
    47   7         48   6                                         1.4574240
    49   6         50   6                                         1.5252364
    49   6         51   8                                         1.4126105
    52   6         53   8                                         1.4370781
    53   8         54   6                                         1.3393441
    54   6         55   8                                         1.1992663
    57   6         58   8                                         1.4022032
    59   6         60   8                                         1.1965910
    59   6         61   8                                         1.3345142
    56   6         62   7                                         1.4368371
    62   7         63   6                                         1.3580319
    63   6         64   8                                         1.2112178
    65   6         66   6                                         1.3268367
    67   6         68   6                                         1.3265993
    69   6         70   6                                         1.5359957
    71   6         72   6                                         1.3247498
    73   6         74   6                                         1.3257406
    75   6         76   6                                         1.5361179
    76   6         77   6                                         1.5293943
    77   6         78   6                                         1.5297588
    78   6         79   6                                         1.5256645
    78   6         80   6                                         1.5297735
    80   6         81   6                                         1.5382939
    81   6         82   6                                         1.5399162
    83   6         84   8                                         1.4203089
    85   6         86   6                                         1.5263012
    87   6         88   8                                         1.4325797
    89   6         91   6                                         1.3290714
    92   6         93   6                                         1.5353354
    94   6         95   8                                         1.4261399
    96   6         98   6                                         1.3316555
    99   6        100   6                                         1.5289952
   100   6        101   8                                         1.4343171
   101   8        102   6                                         1.3235384
   102   6        103   8                                         1.2074812
   105   6        106   8                                         1.3976041
   107   6        108   8                                         1.2130299
   107   6        109   8                                         1.3058947
   110   6        111   6                                         1.5258708
    76   6        112   8                                         1.4172232
    81   6        112   8                                         1.4098555
     1   6        113   1                                         1.0874274
     1   6        114   1                                         1.0918614
     1   6        115   1                                         1.0918691
     6   6        116   1                                         1.0876812
     6   6        117   1                                         1.0883557
     6   6        118   1                                         1.0825167
     7   6        119   1                                         1.0868759
     7   6        120   1                                         1.0867411
     7   6        121   1                                         1.0852045
     8   6        122   1                                         1.0986872
     9   8        123   1                                         0.9684753
    10   6        124   1                                         1.0995655
    11   6        125   1                                         1.0851811
    11   6        126   1                                         1.0864623
    11   6        127   1                                         1.0858019
    15   6        128   1                                         1.0870311
    15   6        129   1                                         1.0876256
    15   6        130   1                                         1.0871800
    16   6        131   1                                         1.0876990
    16   6        132   1                                         1.0865166
    16   6        133   1                                         1.0871355
    17   6        134   1                                         1.0839060
    18   6        135   1                                         1.0795392
    21   7        136   1                                         1.0089227
    22   6        137   1                                         1.0932472
    23   6        138   1                                         1.1054063
    24   8        139   1                                         0.9705562
    25   6        140   1                                         1.0937541
    26   6        141   1                                         1.0871914
    26   6        142   1                                         1.0876881
    26   6        143   1                                         1.0881887
    27   6        144   1                                         1.0871184
    27   6        145   1                                         1.0866650
    27   6        146   1                                         1.0877698
    28   6        147   1                                         1.0940171
    29   8        148   1                                         0.9661280
    30   6        149   1                                         1.0897865
    31   6        150   1                                         1.0883480
    31   6        151   1                                         1.0875370
    31   6        152   1                                         1.0888259
    32   6        153   1                                         1.0826473
    34   6        154   1                                         1.0837542
    34   6        155   1                                         1.0907515
    34   6        156   1                                         1.0842383
    35   6        157   1                                         1.1022618
    36   8        158   1                                         0.9622808 (min)
    37   6        159   1                                         1.0958756
    38   6        160   1                                         1.0872023
    38   6        161   1                                         1.0869799
    38   6        162   1                                         1.0887754
    39   6        163   1                                         1.0887652
    39   6        164   1                                         1.0895033
    40   6        165   1                                         1.0899183
    40   6        166   1                                         1.0914631
    41   6        167   1                                         1.1038417
    42   8        168   1                                         0.9633955
    43   6        169   1                                         1.0978938
    44   6        170   1                                         1.0868771
    44   6        171   1                                         1.0865046
    44   6        172   1                                         1.0867884
    47   7        173   1                                         1.0084256
    48   6        174   1                                         1.0908754
    49   6        175   1                                         1.0969536
    50   6        176   1                                         1.0877044
    50   6        177   1                                         1.0830830
    50   6        178   1                                         1.0871119
    51   8        179   1                                         0.9643832
    52   6        180   1                                         1.0915504
    56   6        181   1                                         1.0930153
    57   6        182   1                                         1.1030098
    58   8        183   1                                         0.9653999
    61   8        184   1                                         0.9699643
    62   7        185   1                                         1.0116063
    65   6        186   1                                         1.0801401
    66   6        187   1                                         1.0843811
    67   6        188   1                                         1.0855740
    68   6        189   1                                         1.0833910
    69   6        190   1                                         1.0923803
    69   6        191   1                                         1.0889929
    70   6        192   1                                         1.0961672
    70   6        193   1                                         1.0906437
    71   6        194   1                                         1.0815732
    72   6        195   1                                         1.0843696
    73   6        196   1                                         1.0852542
    74   6        197   1                                         1.0822549
    75   6        198   1                                         1.0893976
    75   6        199   1                                         1.0909872
    76   6        200   1                                         1.1024059
    77   6        201   1                                         1.0905652
    77   6        202   1                                         1.0922993
    78   6        203   1                                         1.0960604
    79   6        204   1                                         1.0878718
    79   6        205   1                                         1.0876119
    79   6        206   1                                         1.0878405
    80   6        207   1                                         1.0911719
    80   6        208   1                                         1.0924128
    81   6        209   1                                         1.0986376
    82   6        210   1                                         1.0951461
    82   6        211   1                                         1.0900613
    83   6        212   1                                         1.1026441
    84   8        213   1                                         0.9642124
    85   6        214   1                                         1.0905638
    86   6        215   1                                         1.0877552
    86   6        216   1                                         1.0843215
    86   6        217   1                                         1.0847754
    87   6        218   1                                         1.0929167
    88   8        219   1                                         0.9627105
    90   6        220   1                                         1.0877057
    90   6        221   1                                         1.0873117
    90   6        222   1                                         1.0888840
    91   6        223   1                                         1.0864478
    92   6        224   1                                         1.1058064
    93   6        225   1                                         1.0871798
    93   6        226   1                                         1.0884559
    93   6        227   1                                         1.0840992
    94   6        228   1                                         1.1058578
    95   8        229   1                                         0.9643012
    97   6        230   1                                         1.0873385
    97   6        231   1                                         1.0878213
    97   6        232   1                                         1.0877043
    98   6        233   1                                         1.0818348
    99   6        234   1                                         1.0937704
    99   6        235   1                                         1.0902695
   100   6        236   1                                         1.0989647
   104   6        237   1                                         1.0928802
   104   6        238   1                                         1.0914895
   105   6        239   1                                         1.0925957
   106   8        240   1                                         0.9688950
   109   8        241   1                                         0.9859886
   110   6        242   1                                         1.0964984
   111   6        243   1                                         1.0870756
   111   6        244   1                                         1.0854033
   111   6        245   1                                         1.0839483

 * 6 distinct bonds (by element types)

   Z      Z             #   av. dist./Å        max./Å        min./Å
   1 H    6 C         117     1.0897749     1.1058578     1.0795392
   6 C    6 C          34     1.4836876     1.5403452     1.3247498
   1 H    7 N           3     1.0096515     1.0116063     1.0084256
   6 C    7 N           6     1.4018442     1.4574240     1.3536083
   1 H    8 O          13     0.9674378     0.9859886     0.9622808
   6 C    8 O          30     1.3392716     1.4370781     1.1965910


optimized geometry written to: xtbopt.xyz


           -------------------------------------------------
          | TOTAL ENERGY             -360.072621237123 Eh   |
          | GRADIENT NORM               0.000519879438 Eh/α |
          | HOMO-LUMO GAP               2.778163953576 eV   |
           -------------------------------------------------

------------------------------------------------------------------------
 * finished run on 2026/04/08 at 14:24:17.685     
------------------------------------------------------------------------
 total:
 * wall-time:     0 d,  0 h,  3 min, 30.564 sec
 *  cpu-time:     0 d,  0 h,  3 min, 27.232 sec
 * ratio c/w:     0.984 speedup
 SCF:
 * wall-time:     0 d,  0 h,  0 min,  0.801 sec
 *  cpu-time:     0 d,  0 h,  0 min,  0.801 sec
 * ratio c/w:     1.000 speedup
 ANC optimizer:
 * wall-time:     0 d,  0 h,  3 min, 29.725 sec
 *  cpu-time:     0 d,  0 h,  3 min, 26.395 sec
 * ratio c/w:     0.984 speedup

