      -----------------------------------------------------------      
     |                   =====================                   |     
     |                           x T B                           |     
     |                   =====================                   |     
     |                         S. Grimme                         |     
     |          Mulliken Center for Theoretical Chemistry        |     
     |                    University of Bonn                     |     
      -----------------------------------------------------------      

   * xtb version 6.7.1 (6d44803) compiled by 'michele@Mac.homenet.telecomitalia.it' on 2026-04-04

   xtb is free software: you can redistribute it and/or modify it under
   the terms of the GNU Lesser General Public License as published by
   the Free Software Foundation, either version 3 of the License, or
   (at your option) any later version.
   
   xtb is distributed in the hope that it will be useful,
   but WITHOUT ANY WARRANTY; without even the implied warranty of
   MERCHANTABILITY or FITNESS FOR A PARTICULAR PURPOSE.  See the
   GNU Lesser General Public License for more details.
   
   Cite this work as:
   * C. Bannwarth, E. Caldeweyher, S. Ehlert, A. Hansen, P. Pracht,
     J. Seibert, S. Spicher, S. Grimme, WIREs Comput. Mol. Sci., 2020, 11,
     e01493. DOI: 10.1002/wcms.1493
   
   for GFN2-xTB:
   * C. Bannwarth, S. Ehlert and S. Grimme., J. Chem. Theory Comput., 2019,
     15, 1652-1671. DOI: 10.1021/acs.jctc.8b01176
   for GFN1-xTB:
   * S. Grimme, C. Bannwarth, P. Shushkov, J. Chem. Theory Comput., 2017,
     13, 1989-2009. DOI: 10.1021/acs.jctc.7b00118
   for GFN0-xTB:
   * P. Pracht, E. Caldeweyher, S. Ehlert, S. Grimme, ChemRxiv, 2019, preprint.
     DOI: 10.26434/chemrxiv.8326202.v1
   for GFN-FF:
   * S. Spicher and S. Grimme, Angew. Chem. Int. Ed., 2020, 59, 15665-15673.
     DOI: 10.1002/anie.202004239
   
   for ALPB and GBSA implicit solvation:
   * S. Ehlert, M. Stahn, S. Spicher, S. Grimme, J. Chem. Theory Comput.,
     2021, 17, 4250-4261. DOI: 10.1021/acs.jctc.1c00471
   
   for ddCOSMO and CPCM-X implicit solvation:
   * M. Stahn, S. Ehlert, S. Grimme, J. Phys. Chem. A,
     2023, XX, XXXX-XXXX. DOI: 10.1021/acs.jpca.3c04382
   
   for DFT-D4:
   * E. Caldeweyher, C. Bannwarth and S. Grimme, J. Chem. Phys., 2017,
     147, 034112. DOI: 10.1063/1.4993215
   * E. Caldeweyher, S. Ehlert, A. Hansen, H. Neugebauer, S. Spicher,
     C. Bannwarth and S. Grimme, J. Chem. Phys., 2019, 150, 154122.
     DOI: 10.1063/1.5090222
   * E. Caldeweyher, J.-M. Mewes, S. Ehlert and S. Grimme, Phys. Chem. Chem. Phys.
     2020, 22, 8499-8512. DOI: 10.1039/D0CP00502A
   
   for sTDA-xTB:
   * S. Grimme and C. Bannwarth, J. Chem. Phys., 2016, 145, 054103.
     DOI: 10.1063/1.4959605
   
   in the mass-spec context:
   * V. Asgeirsson, C. Bauer and S. Grimme, Chem. Sci., 2017, 8, 4879.
     DOI: 10.1039/c7sc00601b
   * J. Koopman and S. Grimme, ACS Omega 2019, 4, 12, 15120-15133.
     DOI: 10.1021/acsomega.9b02011
   
   for metadynamics refer to:
   * S. Grimme, J. Chem. Theory Comput., 2019, 155, 2847-2862
     DOI: 10.1021/acs.jctc.9b00143
   
   for SPH calculations refer to:
   * S. Spicher and S. Grimme, J. Chem. Theory Comput., 2021, 17, 1701-1714
     DOI: 10.1021/acs.jctc.0c01306
   
   for ONIOM refer to:
   * C. Plett, A. Katbashev, S. Ehlert, S. Grimme, M. Bursch,
     Phys. Chem. Chem. Phys., 2023, 25, 17860-17868. DOI: 10.1039/D3CP02178E
   
   for DIPRO refer to:
   * J. Kohn, N. Gildemeister, S. Grimme, D. Fazzi, A. Hansen,
     J. Chem. Phys. 159, 144106 (2023). DOI: 10.1063/5.0167484
   
   for PTB refer to:
   * S. Grimme, M. Mueller, A. Hansen, J. Chem. Phys., 2023, 158, 124111.
     DOI: 10.1063/5.0137838
   
   with help from (in alphabetical order)
   P. Atkinson, C. Bannwarth, F. Bohle, G. Brandenburg, E. Caldeweyher
   M. Checinski, S. Dohm, S. Ehlert, S. Ehrlich, I. Gerasimov, C. Hölzer
   A. Katbashev, J. Kohn, J. Koopman, C. Lavigne, S. Lehtola, F. März, M. Müller,
   F. Musil, H. Neugebauer, J. Pisarek, C. Plett, P. Pracht, F. Pultar,
   J. Seibert, P. Shushkov, S. Spicher, M. Stahn, M. Steiner, T. Strunk,
   J. Stückrath, T. Rose, and J. Unsleber
   
 * started run on 2026/04/08 at 14:24:17.723     
   ID    Z sym.   atoms
    1    6 C      1, 2
    2    1 H      3-8

           -------------------------------------------------
          |                Calculation Setup                |
           -------------------------------------------------

          program call               : xtb 5978.xyz --opt --gfn2 --chrg 0 --cmaes --maxstep 0.2 --cycles 1000 --gfniter 3000 --namespace 5978
          calculation namespace      : 5978
          coordinate file            : 5978.xyz
          omp threads                :                     1

########################################################################
[WARNING] Please study the warnings concerning your input carefully
-3- prog_main_parseArguments: Unknown option '--gfniter' provided
-2- prog_main_parseArguments: Unknown option '--maxstep' provided
-1- prog_main_parseArguments: Unknown option '--cmaes' provided
########################################################################

           -------------------------------------------------
          |                 G F N 2 - x T B                 |
           -------------------------------------------------

        Reference                      10.1021/acs.jctc.8b01176
      * Hamiltonian:
        H0-scaling (s, p, d)           1.850000    2.230000    2.230000
        zeta-weighting                 0.500000
      * Dispersion:
        s8                             2.700000
        a1                             0.520000
        a2                             5.000000
        s9                             5.000000
      * Repulsion:
        kExp                           1.500000    1.000000
        rExp                           1.000000
      * Coulomb:
        alpha                          2.000000
        third order                    shell-resolved
        anisotropic                    true
        a3                             3.000000
        a5                             4.000000
        cn-shift                       1.200000
        cn-exp                         4.000000
        max-rad                        5.000000

q/qsh data taken from xtbrestart
CAMM data taken from xtbrestart

          ...................................................
          :                      SETUP                      :
          :.................................................:
          :  # basis functions                  14          :
          :  # atomic orbitals                  14          :
          :  # shells                           10          :
          :  # electrons                        14          :
          :  max. iterations                   250          :
          :  Hamiltonian                  GFN2-xTB          :
          :  restarted?                       true          :
          :  GBSA solvation                  false          :
          :  PC potential                    false          :
          :  electronic temp.          300.0000000     K    :
          :  accuracy                    1.0000000          :
          :  -> integral cutoff          0.2500000E+02      :
          :  -> integral neglect         0.1000000E-07      :
          :  -> SCF convergence          0.1000000E-05 Eh   :
          :  -> wf. convergence          0.1000000E-03 e    :
          :  Broyden damping             0.4000000          :
          :  net charge                          0          :
          :  unpaired electrons                  0          :
          ...................................................

 iter      E             dE          RMSdq      gap      omega  full diag
   1     -7.4497121 -0.744971E+01  0.721E-02   15.72       0.0  T
   2     -7.4497184 -0.636739E-05  0.414E-02   15.71       1.0  T
   3     -7.4497185 -0.705725E-07  0.150E-02   15.71       2.4  T
   4     -7.4497185 -0.101677E-07  0.171E-03   15.71      20.7  T
   5     -7.4497185 -0.215712E-10  0.432E-05   15.71     818.7  T
   6     -7.4497185 -0.479616E-13  0.234E-05   15.71    1512.4  T

   *** convergence criteria satisfied after 6 iterations ***

         #    Occupation            Energy/Eh            Energy/eV
      -------------------------------------------------------------
         1        2.0000           -0.6051005             -16.4656
         2        2.0000           -0.5622186             -15.2987
         3        2.0000           -0.4957906             -13.4911
         4        2.0000           -0.4957905             -13.4911
         5        2.0000           -0.4613679             -12.5545
         6        2.0000           -0.4346100             -11.8263
         7        2.0000           -0.4346099             -11.8263 (HOMO)
         8                          0.1428545               3.8873 (LUMO)
         9                          0.1572832               4.2799
        10                          0.1572838               4.2799
        11                          0.1639628               4.4617
        12                          0.1944244               5.2906
       ...                                ...                  ...
        14                          0.2731859               7.4338
      -------------------------------------------------------------
                  HL-Gap            0.5774644 Eh           15.7136 eV
             Fermi-level           -0.1458777 Eh           -3.9695 eV

 SCC (total)                   0 d,  0 h,  0 min,  0.001 sec
 SCC setup                      ...        0 min,  0.000 sec (  4.727%)
 Dispersion                     ...        0 min,  0.000 sec (  2.182%)
 classical contributions        ...        0 min,  0.000 sec (  0.525%)
 integral evaluation            ...        0 min,  0.000 sec ( 12.566%)
 iterations                     ...        0 min,  0.000 sec ( 42.505%)
 molecular gradient             ...        0 min,  0.000 sec ( 33.899%)
 printout                       ...        0 min,  0.000 sec (  3.232%)

         :::::::::::::::::::::::::::::::::::::::::::::::::::::
         ::                     SUMMARY                     ::
         :::::::::::::::::::::::::::::::::::::::::::::::::::::
         :: total energy              -7.336182650602 Eh    ::
         :: gradient norm              0.014336189142 Eh/a0 ::
         :: HOMO-LUMO gap             15.713605328832 eV    ::
         ::.................................................::
         :: SCC energy                -7.449718342690 Eh    ::
         :: -> isotropic ES            0.001953243234 Eh    ::
         :: -> anisotropic ES          0.003193829612 Eh    ::
         :: -> anisotropic XC          0.005551721952 Eh    ::
         :: -> dispersion             -0.002037502329 Eh    ::
         :: repulsion energy           0.113535692089 Eh    ::
         :: add. restraining           0.000000000000 Eh    ::
         :: total charge               0.000000000000 e     ::
         :::::::::::::::::::::::::::::::::::::::::::::::::::::

      ----------------------------------------------------------- 
     |                   =====================                   |
     |                        A N C O P T                        |
     |                   =====================                   |
     |               Approximate Normal Coordinate               |
     |                Rational Function Optimizer                |
      ----------------------------------------------------------- 

          ...................................................
          :                      SETUP                      :
          :.................................................:
          :   optimization level            normal          :
          :   max. optcycles                  1000          :
          :   ANC micro-cycles                  20          :
          :   degrees of freedom                18          :
          :.................................................:
          :   RF solver                   davidson          :
          :   write xtbopt.log                true          :
          :   linear?                        false          :
          :   energy convergence         0.5000000E-05 Eh   :
          :   grad. convergence          0.1000000E-02 Eh/α :
          :   maximum RF displ.          1.0000000          :
          :   Hlow (freq-cutoff)         0.1000000E-01      :
          :   Hmax (freq-cutoff)         5.0000000          :
          :   S6 in model hess.         20.0000000          :
          ...................................................

generating ANC from exact Hessian ...
Using Lindh-Hessian (1995)
 Shifting diagonal of input Hessian by    0.0000000000000000     
 Lowest  eigenvalues of input Hessian
    0.000000    0.000000    0.000000    0.000000    0.000000    0.000000
    0.015839    0.040376    0.040376    0.058400    0.078829    0.078829
    0.120713    0.120713    0.138667    0.138667    0.178397    0.340172
 Highest eigenvalues
    0.652523    1.045524    1.045526    1.153994    1.153996    1.251440


........................................................................
.............................. CYCLE    1 ..............................
........................................................................

 iter      E             dE          RMSdq      gap      omega  full diag
   1     -7.4497185 -0.744972E+01  0.207E-07   15.71       0.0  T
   2     -7.4497185  0.177636E-14  0.123E-07   15.71  100000.0  T
   3     -7.4497185 -0.888178E-15  0.608E-09   15.71  100000.0  T
     SCC iter.                  ...        0 min,  0.000 sec
     gradient                   ...        0 min,  0.000 sec
 * total energy  :    -7.3361827 Eh     change       -0.1598721E-13 Eh
   gradient norm :     0.0143361 Eh/α   predicted     0.0000000E+00 (-100.00%)
   displ. norm   :     0.0409924 α      lambda       -0.3147830E-03
   maximum displ.:     0.0353676 α      in ANC's #4, #12, #18, ...

........................................................................
.............................. CYCLE    2 ..............................
........................................................................

 iter      E             dE          RMSdq      gap      omega  full diag
   1     -7.4530799 -0.745308E+01  0.860E-02   15.54       0.0  T
   2     -7.4530835 -0.358266E-05  0.513E-02   15.54       1.0  T
   3     -7.4530835 -0.852151E-07  0.905E-03   15.54       3.9  T
   4     -7.4530835 -0.357459E-08  0.155E-03   15.54      22.8  T
   5     -7.4530835 -0.197113E-10  0.362E-05   15.54     977.6  T
   6     -7.4530835 -0.133227E-13  0.155E-05   15.54    2276.9  T
     SCC iter.                  ...        0 min,  0.000 sec
     gradient                   ...        0 min,  0.000 sec
 * total energy  :    -7.3363546 Eh     change       -0.1719938E-03 Eh
   gradient norm :     0.0041570 Eh/α   predicted    -0.1576569E-03 (  -8.34%)
   displ. norm   :     0.0111016 α      lambda       -0.2568325E-04
   maximum displ.:     0.0097372 α      in ANC's #4, #18, #12, ...

........................................................................
.............................. CYCLE    3 ..............................
........................................................................

 iter      E             dE          RMSdq      gap      omega  full diag
   1     -7.4540007 -0.745400E+01  0.246E-02   15.53       0.0  T
   2     -7.4540010 -0.286366E-06  0.133E-02   15.54       2.7  T
   3     -7.4540010 -0.302057E-08  0.326E-03   15.54      10.8  T
   4     -7.4540010 -0.262180E-09  0.230E-04   15.54     153.5  T
   5     -7.4540010 -0.663469E-12  0.575E-06   15.54    6146.3  T
     SCC iter.                  ...        0 min,  0.000 sec
     gradient                   ...        0 min,  0.000 sec
 * total energy  :    -7.3363695 Eh     change       -0.1484433E-04 Eh
   gradient norm :     0.0011020 Eh/α   predicted    -0.1284337E-04 ( -13.48%)
   displ. norm   :     0.0038467 α      lambda       -0.1975623E-05
   maximum displ.:     0.0028934 α      in ANC's #4, #18, #12, ...

........................................................................
.............................. CYCLE    4 ..............................
........................................................................

 iter      E             dE          RMSdq      gap      omega  full diag
   1     -7.4539351 -0.745394E+01  0.933E-03   15.50       0.0  T
   2     -7.4539351 -0.121491E-07  0.536E-03   15.50       6.6  T
   3     -7.4539351 -0.616129E-09  0.536E-04   15.50      66.0  T
   4     -7.4539351 -0.128413E-10  0.111E-04   15.50     318.5  T
     SCC iter.                  ...        0 min,  0.000 sec
     gradient                   ...        0 min,  0.000 sec
 * total energy  :    -7.3363706 Eh     change       -0.1083472E-05 Eh
   gradient norm :     0.0003232 Eh/α   predicted    -0.9881528E-06 (  -8.80%)
   displ. norm   :     0.0012673 α      lambda       -0.1502497E-06
   maximum displ.:     0.0011687 α      in ANC's #4, #18, #12, ...

   *** GEOMETRY OPTIMIZATION CONVERGED AFTER 4 ITERATIONS ***

------------------------------------------------------------------------
 total energy gain   :        -0.0001879 Eh       -0.1179 kcal/mol
 total RMSD          :         0.0121022 a0        0.0064 Å
 total power (kW/mol):        -0.1233470 (step) -236.6674 (real)
------------------------------------------------------------------------

 ANCopt (total)                0 d,  0 h,  0 min,  0.002 sec
 optimizer setup                ...        0 min,  0.000 sec (  1.576%)
 model hessian                  ...        0 min,  0.000 sec (  5.458%)
 ANC generation                 ...        0 min,  0.000 sec (  1.736%)
 coordinate transformation      ...        0 min,  0.000 sec (  0.148%)
 single point calculation       ...        0 min,  0.002 sec ( 72.708%)
 optimization log               ...        0 min,  0.000 sec ( 10.506%)
 hessian update                 ...        0 min,  0.000 sec (  0.240%)
 rational function              ...        0 min,  0.000 sec (  3.985%)

================
 final structure:
================
8
 xtb: 6.7.1 (6d44803)
C            0.75982706327366        0.00596810236479        0.03871799453218
C           -0.75982681697874       -0.00596810559727       -0.03871772605139
H            1.19385534967460       -0.27566745389172       -0.91801232997855
H            1.10997430117414       -0.69529455954841        0.79281321376065
H            1.12179948694235        0.99786877308426        0.29975630473784
H           -1.12179931495997       -0.99786895875279       -0.29975531641230
H           -1.10997395222011        0.69529399834905       -0.79281350644450
H           -1.19385511690594        0.27566820399209        0.91801236585607

 Bond Distances (Angstroems)
 ---------------------------
C1-C2=1.5217         C1-H3=1.0877         C1-H4=1.0877         C1-H5=1.0877         C2-C1=1.5217         C2-H6=1.0877         
C2-H7=1.0877         C2-H8=1.0877         H3-C1=1.0877         H4-C1=1.0877         H5-C1=1.0877         H6-C2=1.0877         
H7-C2=1.0877         H8-C2=1.0877         
 C  H  Rav=1.0877 sigma=0.0000  Rmin=1.0877  Rmax=1.0877     6
 C  C  Rav=1.5217 sigma=0.0000  Rmin=1.5217  Rmax=1.5217     1

 selected bond angles (degree)
 --------------------
H3-C1-C2=110.59                H4-C1-C2=110.59                H4-C1-H3=108.33                H5-C1-C2=110.59                
H5-C1-H3=108.33                H5-C1-H4=108.33                H6-C2-C1=110.59                H7-C2-C1=110.59                
H7-C2-H6=108.33                H8-C2-C1=110.59                H8-C2-H6=108.33                H8-C2-H7=108.33                

 selected dihedral angles (degree)
 ---------------------------------
H6-C2-C1-H3= 60.00            H6-C2-C1-H4=300.00            H6-C2-C1-H5=180.00            H7-C2-C1-H3=300.00            
H7-C2-C1-H4=180.00            H7-C2-C1-H5= 60.00            H8-C2-C1-H3=180.00            H8-C2-C1-H4= 60.00            
H8-C2-C1-H5=300.00            
           -------------------------------------------------
          |                Final Singlepoint                |
           -------------------------------------------------

          ...................................................
          :                      SETUP                      :
          :.................................................:
          :  # basis functions                  14          :
          :  # atomic orbitals                  14          :
          :  # shells                           10          :
          :  # electrons                        14          :
          :  max. iterations                   250          :
          :  Hamiltonian                  GFN2-xTB          :
          :  restarted?                      false          :
          :  GBSA solvation                  false          :
          :  PC potential                    false          :
          :  electronic temp.          300.0000000     K    :
          :  accuracy                    1.0000000          :
          :  -> integral cutoff          0.2500000E+02      :
          :  -> integral neglect         0.1000000E-07      :
          :  -> SCF convergence          0.1000000E-05 Eh   :
          :  -> wf. convergence          0.1000000E-03 e    :
          :  Broyden damping             0.4000000          :
          :  net charge                          0          :
          :  unpaired electrons                  0          :
          ...................................................

 iter      E             dE          RMSdq      gap      omega  full diag
   1     -7.4539351 -0.745394E+01  0.311E-06   15.50       0.0  T
   2     -7.4539351 -0.355271E-14  0.183E-06   15.50   19347.9  T
   3     -7.4539351  0.976996E-14  0.250E-08   15.50  100000.0  T

   *** convergence criteria satisfied after 3 iterations ***

         #    Occupation            Energy/Eh            Energy/eV
      -------------------------------------------------------------
         1        2.0000           -0.6047688             -16.4566
         2        2.0000           -0.5631085             -15.3230
         3        2.0000           -0.4954127             -13.4809
         4        2.0000           -0.4954127             -13.4809
         5        2.0000           -0.4610094             -12.5447
         6        2.0000           -0.4353592             -11.8467
         7        2.0000           -0.4353592             -11.8467 (HOMO)
         8                          0.1343372               3.6555 (LUMO)
         9                          0.1677943               4.5659
        10                          0.1677944               4.5659
        11                          0.1748028               4.7566
        12                          0.2018577               5.4928
       ...                                ...                  ...
        14                          0.2818894               7.6706
      -------------------------------------------------------------
                  HL-Gap            0.5696964 Eh           15.5022 eV
             Fermi-level           -0.1505110 Eh           -4.0956 eV

 SCC (total)                   0 d,  0 h,  0 min,  0.000 sec
 SCC setup                      ...        0 min,  0.000 sec (  3.352%)
 Dispersion                     ...        0 min,  0.000 sec (  0.807%)
 classical contributions        ...        0 min,  0.000 sec (  0.497%)
 integral evaluation            ...        0 min,  0.000 sec ( 14.836%)
 iterations                     ...        0 min,  0.000 sec ( 20.484%)
 molecular gradient             ...        0 min,  0.000 sec ( 53.445%)
 printout                       ...        0 min,  0.000 sec (  5.711%)

         :::::::::::::::::::::::::::::::::::::::::::::::::::::
         ::                     SUMMARY                     ::
         :::::::::::::::::::::::::::::::::::::::::::::::::::::
         :: total energy              -7.336370572196 Eh    ::
         :: gradient norm              0.000323136430 Eh/a0 ::
         :: HOMO-LUMO gap             15.502228150718 eV    ::
         ::.................................................::
         :: SCC energy                -7.453934963577 Eh    ::
         :: -> isotropic ES            0.002040023443 Eh    ::
         :: -> anisotropic ES          0.003090259965 Eh    ::
         :: -> anisotropic XC          0.005385734845 Eh    ::
         :: -> dispersion             -0.002033879876 Eh    ::
         :: repulsion energy           0.117564391381 Eh    ::
         :: add. restraining           0.000000000000 Eh    ::
         :: total charge              -0.000000000000 e     ::
         :::::::::::::::::::::::::::::::::::::::::::::::::::::

           -------------------------------------------------
          |                Property Printout                |
           -------------------------------------------------

    * Orbital Energies and Occupations

         #    Occupation            Energy/Eh            Energy/eV
      -------------------------------------------------------------
         1        2.0000           -0.6047688             -16.4566
         2        2.0000           -0.5631085             -15.3230
         3        2.0000           -0.4954127             -13.4809
         4        2.0000           -0.4954127             -13.4809
         5        2.0000           -0.4610094             -12.5447
         6        2.0000           -0.4353592             -11.8467
         7        2.0000           -0.4353592             -11.8467 (HOMO)
         8                          0.1343372               3.6555 (LUMO)
         9                          0.1677943               4.5659
        10                          0.1677944               4.5659
        11                          0.1748028               4.7566
        12                          0.2018577               5.4928
        13                          0.2818893               7.6706
        14                          0.2818894               7.6706
      -------------------------------------------------------------
                  HL-Gap            0.5696964 Eh           15.5022 eV
             Fermi-level           -0.1505110 Eh           -4.0956 eV

     #   Z          covCN         q      C6AA      α(0)
     1   6          3.750    -0.097    22.415     6.752
     2   6          3.750    -0.097    22.415     6.752
     3   1          0.925     0.032     2.554     2.499
     4   1          0.925     0.032     2.554     2.499
     5   1          0.925     0.032     2.554     2.499
     6   1          0.925     0.032     2.554     2.499
     7   1          0.925     0.032     2.554     2.499
     8   1          0.925     0.032     2.554     2.499

 Mol. C6AA /au·bohr⁶  :        362.033666
 Mol. C8AA /au·bohr⁸  :       7078.361042
 Mol. α(0) /au        :         28.498346


Wiberg/Mayer (AO) data.
largest (>0.10) Wiberg bond orders for each atom

 ---------------------------------------------------------------------------
     #   Z sym  total        # sym  WBO       # sym  WBO       # sym  WBO
 ---------------------------------------------------------------------------
     1   6      3.997 --     2      1.031     5      0.989     4      0.989
                             3      0.989
     2   6      3.997 --     1      1.031     6      0.989     7      0.989
                             8      0.989
     3   1      0.999 --     1      0.989
     4   1      0.999 --     1      0.989
     5   1      0.999 --     1      0.989
     6   1      0.999 --     2      0.989
     7   1      0.999 --     2      0.989
     8   1      0.999 --     2      0.989
 ---------------------------------------------------------------------------

Topologies differ in total number of bonds
Writing topology from bond orders to xtbtopo.mol

molecular dipole:
                 x           y           z       tot (Debye)
 q only:       -0.000       0.000      -0.000
   full:        0.000       0.000      -0.000       0.000
molecular quadrupole (traceless):
                xx          xy          yy          xz          yz          zz
 q only:        0.145       0.002      -0.073       0.011       0.000      -0.072
  q+dip:       -0.624      -0.007       0.313      -0.048      -0.000       0.311
   full:       -0.269      -0.003       0.135      -0.021      -0.000       0.134

           -------------------------------------------------
          |                Geometry Summary                 |
           -------------------------------------------------

      molecular mass/u    :       30.0691163
   center of mass at/Å    :        0.0000001      -0.0000000       0.0000001
  moments of inertia/u·Å² :        0.6269487E+01   0.2494647E+02   0.2494647E+02
rotational constants/cm⁻¹ :        0.2688837E+01   0.6757522E+00   0.6757522E+00

 * 7 selected distances

     #   Z          #   Z                                           value/Å
     1   6          2   6                                         1.5216725 (max)
     1   6          3   1                                         1.0876729
     1   6          4   1                                         1.0876728
     1   6          5   1                                         1.0876728 (min)
     2   6          6   1                                         1.0876729
     2   6          7   1                                         1.0876728
     2   6          8   1                                         1.0876729

 * 2 distinct bonds (by element types)

   Z      Z             #   av. dist./Å        max./Å        min./Å
   1 H    6 C           6     1.0876729     1.0876729     1.0876728
   6 C    6 C           1     1.5216725     1.5216725     1.5216725


optimized geometry written to: xtbopt.xyz


           -------------------------------------------------
          | TOTAL ENERGY               -7.336370572196 Eh   |
          | GRADIENT NORM               0.000323136430 Eh/α |
          | HOMO-LUMO GAP              15.502228150718 eV   |
           -------------------------------------------------

------------------------------------------------------------------------
 * finished run on 2026/04/08 at 14:24:17.729     
------------------------------------------------------------------------
 total:
 * wall-time:     0 d,  0 h,  0 min,  0.006 sec
 *  cpu-time:     0 d,  0 h,  0 min,  0.005 sec
 * ratio c/w:     0.883 speedup
 SCF:
 * wall-time:     0 d,  0 h,  0 min,  0.001 sec
 *  cpu-time:     0 d,  0 h,  0 min,  0.001 sec
 * ratio c/w:     1.002 speedup
 ANC optimizer:
 * wall-time:     0 d,  0 h,  0 min,  0.003 sec
 *  cpu-time:     0 d,  0 h,  0 min,  0.003 sec
 * ratio c/w:     0.953 speedup

