8
 energy: -7.336370572196 gnorm: 0.000323136430 xtb: 6.7.1 (6d44803)
C            0.75982706327366        0.00596810236479        0.03871799453218
C           -0.75982681697874       -0.00596810559727       -0.03871772605139
H            1.19385534967460       -0.27566745389172       -0.91801232997855
H            1.10997430117414       -0.69529455954841        0.79281321376065
H            1.12179948694235        0.99786877308426        0.29975630473784
H           -1.12179931495997       -0.99786895875279       -0.29975531641230
H           -1.10997395222011        0.69529399834905       -0.79281350644450
H           -1.19385511690594        0.27566820399209        0.91801236585607
