14
 energy: -17.897849208619 gnorm: 0.000150338513 xtb: 6.7.1 (6d44803)
C           -0.64831505893616        1.22761288314583        0.45427367749275
C           -0.02035378371177        0.08784066498236       -0.34028622228889
C            1.45826836005957       -0.08400756036018       -0.01030708110127
C           -0.79342096064774       -1.21495487413458       -0.16756548877116
F           -0.10130263437033        0.43719176335505       -1.69363876392187
H           -0.11098209216450        2.15405439137893        0.26584014793072
H           -1.68516891093819        1.36339177125570        0.15590154723608
H           -0.61077302462411        1.00514835446681        1.51665093291782
H            1.89128751341323       -0.86341038651398       -0.63284497194730
H            1.99273203749327        0.84422141930309       -0.19810293256537
H            1.57690590332126       -0.35697004678013        1.03418414585411
H           -0.76146950131331       -1.53145066305774        0.87087315384775
H           -0.35733301307365       -1.99282002197275       -0.78988443303542
H           -1.83007583450757       -1.07584769506839       -0.46509471164794
