      -----------------------------------------------------------      
     |                   =====================                   |     
     |                           x T B                           |     
     |                   =====================                   |     
     |                         S. Grimme                         |     
     |          Mulliken Center for Theoretical Chemistry        |     
     |                    University of Bonn                     |     
      -----------------------------------------------------------      

   * xtb version 6.7.1 (6d44803) compiled by 'michele@Mac.homenet.telecomitalia.it' on 2026-04-04

   xtb is free software: you can redistribute it and/or modify it under
   the terms of the GNU Lesser General Public License as published by
   the Free Software Foundation, either version 3 of the License, or
   (at your option) any later version.
   
   xtb is distributed in the hope that it will be useful,
   but WITHOUT ANY WARRANTY; without even the implied warranty of
   MERCHANTABILITY or FITNESS FOR A PARTICULAR PURPOSE.  See the
   GNU Lesser General Public License for more details.
   
   Cite this work as:
   * C. Bannwarth, E. Caldeweyher, S. Ehlert, A. Hansen, P. Pracht,
     J. Seibert, S. Spicher, S. Grimme, WIREs Comput. Mol. Sci., 2020, 11,
     e01493. DOI: 10.1002/wcms.1493
   
   for GFN2-xTB:
   * C. Bannwarth, S. Ehlert and S. Grimme., J. Chem. Theory Comput., 2019,
     15, 1652-1671. DOI: 10.1021/acs.jctc.8b01176
   for GFN1-xTB:
   * S. Grimme, C. Bannwarth, P. Shushkov, J. Chem. Theory Comput., 2017,
     13, 1989-2009. DOI: 10.1021/acs.jctc.7b00118
   for GFN0-xTB:
   * P. Pracht, E. Caldeweyher, S. Ehlert, S. Grimme, ChemRxiv, 2019, preprint.
     DOI: 10.26434/chemrxiv.8326202.v1
   for GFN-FF:
   * S. Spicher and S. Grimme, Angew. Chem. Int. Ed., 2020, 59, 15665-15673.
     DOI: 10.1002/anie.202004239
   
   for ALPB and GBSA implicit solvation:
   * S. Ehlert, M. Stahn, S. Spicher, S. Grimme, J. Chem. Theory Comput.,
     2021, 17, 4250-4261. DOI: 10.1021/acs.jctc.1c00471
   
   for ddCOSMO and CPCM-X implicit solvation:
   * M. Stahn, S. Ehlert, S. Grimme, J. Phys. Chem. A,
     2023, XX, XXXX-XXXX. DOI: 10.1021/acs.jpca.3c04382
   
   for DFT-D4:
   * E. Caldeweyher, C. Bannwarth and S. Grimme, J. Chem. Phys., 2017,
     147, 034112. DOI: 10.1063/1.4993215
   * E. Caldeweyher, S. Ehlert, A. Hansen, H. Neugebauer, S. Spicher,
     C. Bannwarth and S. Grimme, J. Chem. Phys., 2019, 150, 154122.
     DOI: 10.1063/1.5090222
   * E. Caldeweyher, J.-M. Mewes, S. Ehlert and S. Grimme, Phys. Chem. Chem. Phys.
     2020, 22, 8499-8512. DOI: 10.1039/D0CP00502A
   
   for sTDA-xTB:
   * S. Grimme and C. Bannwarth, J. Chem. Phys., 2016, 145, 054103.
     DOI: 10.1063/1.4959605
   
   in the mass-spec context:
   * V. Asgeirsson, C. Bauer and S. Grimme, Chem. Sci., 2017, 8, 4879.
     DOI: 10.1039/c7sc00601b
   * J. Koopman and S. Grimme, ACS Omega 2019, 4, 12, 15120-15133.
     DOI: 10.1021/acsomega.9b02011
   
   for metadynamics refer to:
   * S. Grimme, J. Chem. Theory Comput., 2019, 155, 2847-2862
     DOI: 10.1021/acs.jctc.9b00143
   
   for SPH calculations refer to:
   * S. Spicher and S. Grimme, J. Chem. Theory Comput., 2021, 17, 1701-1714
     DOI: 10.1021/acs.jctc.0c01306
   
   for ONIOM refer to:
   * C. Plett, A. Katbashev, S. Ehlert, S. Grimme, M. Bursch,
     Phys. Chem. Chem. Phys., 2023, 25, 17860-17868. DOI: 10.1039/D3CP02178E
   
   for DIPRO refer to:
   * J. Kohn, N. Gildemeister, S. Grimme, D. Fazzi, A. Hansen,
     J. Chem. Phys. 159, 144106 (2023). DOI: 10.1063/5.0167484
   
   for PTB refer to:
   * S. Grimme, M. Mueller, A. Hansen, J. Chem. Phys., 2023, 158, 124111.
     DOI: 10.1063/5.0137838
   
   with help from (in alphabetical order)
   P. Atkinson, C. Bannwarth, F. Bohle, G. Brandenburg, E. Caldeweyher
   M. Checinski, S. Dohm, S. Ehlert, S. Ehrlich, I. Gerasimov, C. Hölzer
   A. Katbashev, J. Kohn, J. Koopman, C. Lavigne, S. Lehtola, F. März, M. Müller,
   F. Musil, H. Neugebauer, J. Pisarek, C. Plett, P. Pracht, F. Pultar,
   J. Seibert, P. Shushkov, S. Spicher, M. Stahn, M. Steiner, T. Strunk,
   J. Stückrath, T. Rose, and J. Unsleber
   
 * started run on 2026/04/08 at 14:20:47.069     
   ID    Z sym.   atoms
    1    6 C      1-4
    2    9 F      5
    3    1 H      6-14

           -------------------------------------------------
          |                Calculation Setup                |
           -------------------------------------------------

          program call               : xtb 9094.xyz --opt --gfn2 --chrg 0 --cmaes --maxstep 0.2 --cycles 1000 --gfniter 3000 --namespace 9094
          calculation namespace      : 9094
          coordinate file            : 9094.xyz
          omp threads                :                     1

########################################################################
[WARNING] Please study the warnings concerning your input carefully
-3- prog_main_parseArguments: Unknown option '--gfniter' provided
-2- prog_main_parseArguments: Unknown option '--maxstep' provided
-1- prog_main_parseArguments: Unknown option '--cmaes' provided
########################################################################

           -------------------------------------------------
          |                 G F N 2 - x T B                 |
           -------------------------------------------------

        Reference                      10.1021/acs.jctc.8b01176
      * Hamiltonian:
        H0-scaling (s, p, d)           1.850000    2.230000    2.230000
        zeta-weighting                 0.500000
      * Dispersion:
        s8                             2.700000
        a1                             0.520000
        a2                             5.000000
        s9                             5.000000
      * Repulsion:
        kExp                           1.500000    1.000000
        rExp                           1.000000
      * Coulomb:
        alpha                          2.000000
        third order                    shell-resolved
        anisotropic                    true
        a3                             3.000000
        a5                             4.000000
        cn-shift                       1.200000
        cn-exp                         4.000000
        max-rad                        5.000000

q/qsh data taken from xtbrestart
CAMM data taken from xtbrestart

          ...................................................
          :                      SETUP                      :
          :.................................................:
          :  # basis functions                  29          :
          :  # atomic orbitals                  29          :
          :  # shells                           19          :
          :  # electrons                        32          :
          :  max. iterations                   250          :
          :  Hamiltonian                  GFN2-xTB          :
          :  restarted?                       true          :
          :  GBSA solvation                  false          :
          :  PC potential                    false          :
          :  electronic temp.          300.0000000     K    :
          :  accuracy                    1.0000000          :
          :  -> integral cutoff          0.2500000E+02      :
          :  -> integral neglect         0.1000000E-07      :
          :  -> SCF convergence          0.1000000E-05 Eh   :
          :  -> wf. convergence          0.1000000E-03 e    :
          :  Broyden damping             0.4000000          :
          :  net charge                          0          :
          :  unpaired electrons                  0          :
          ...................................................

 iter      E             dE          RMSdq      gap      omega  full diag
   1    -18.0936425 -0.180936E+02  0.151E-01   12.93       0.0  T
   2    -18.0937059 -0.634641E-04  0.975E-02   12.93       1.0  T
   3    -18.0937124 -0.642443E-05  0.439E-02   12.94       1.0  T
   4    -18.0937154 -0.306791E-05  0.124E-02   12.94       2.2  T
   5    -18.0937157 -0.246172E-06  0.104E-03   12.94      25.8  T
   6    -18.0937157 -0.468422E-09  0.257E-04   12.94     104.0  T
   7    -18.0937157 -0.167546E-10  0.853E-05   12.94     313.2  T

   *** convergence criteria satisfied after 7 iterations ***

         #    Occupation            Energy/Eh            Energy/eV
      -------------------------------------------------------------
         1        2.0000           -0.7941551             -21.6101
       ...           ...                  ...                  ...
        10        2.0000           -0.4830497             -13.1445
        11        2.0000           -0.4729090             -12.8685
        12        2.0000           -0.4661190             -12.6837
        13        2.0000           -0.4661190             -12.6837
        14        2.0000           -0.4601708             -12.5219
        15        2.0000           -0.4319413             -11.7537
        16        2.0000           -0.4319412             -11.7537 (HOMO)
        17                          0.0436546               1.1879 (LUMO)
        18                          0.0878898               2.3916
        19                          0.0955990               2.6014
        20                          0.0956000               2.6014
        21                          0.1462408               3.9794
       ...                                ...                  ...
        29                          0.2669571               7.2643
      -------------------------------------------------------------
                  HL-Gap            0.4755957 Eh           12.9416 eV
             Fermi-level           -0.1941433 Eh           -5.2829 eV

 SCC (total)                   0 d,  0 h,  0 min,  0.009 sec
 SCC setup                      ...        0 min,  0.001 sec ( 10.701%)
 Dispersion                     ...        0 min,  0.001 sec (  8.175%)
 classical contributions        ...        0 min,  0.000 sec (  0.047%)
 integral evaluation            ...        0 min,  0.001 sec ( 10.126%)
 iterations                     ...        0 min,  0.005 sec ( 58.010%)
 molecular gradient             ...        0 min,  0.001 sec ( 12.171%)
 printout                       ...        0 min,  0.000 sec (  0.734%)

         :::::::::::::::::::::::::::::::::::::::::::::::::::::
         ::                     SUMMARY                     ::
         :::::::::::::::::::::::::::::::::::::::::::::::::::::
         :: total energy             -17.896557025093 Eh    ::
         :: gradient norm              0.036522440106 Eh/a0 ::
         :: HOMO-LUMO gap             12.941618740631 eV    ::
         ::.................................................::
         :: SCC energy               -18.093706145810 Eh    ::
         :: -> isotropic ES            0.017915578492 Eh    ::
         :: -> anisotropic ES          0.003401465503 Eh    ::
         :: -> anisotropic XC          0.003179496883 Eh    ::
         :: -> dispersion             -0.006710100969 Eh    ::
         :: repulsion energy           0.197149120717 Eh    ::
         :: add. restraining           0.000000000000 Eh    ::
         :: total charge              -0.000000000000 e     ::
         :::::::::::::::::::::::::::::::::::::::::::::::::::::

      ----------------------------------------------------------- 
     |                   =====================                   |
     |                        A N C O P T                        |
     |                   =====================                   |
     |               Approximate Normal Coordinate               |
     |                Rational Function Optimizer                |
      ----------------------------------------------------------- 

          ...................................................
          :                      SETUP                      :
          :.................................................:
          :   optimization level            normal          :
          :   max. optcycles                  1000          :
          :   ANC micro-cycles                  20          :
          :   degrees of freedom                36          :
          :.................................................:
          :   RF solver                   davidson          :
          :   write xtbopt.log                true          :
          :   linear?                        false          :
          :   energy convergence         0.5000000E-05 Eh   :
          :   grad. convergence          0.1000000E-02 Eh/α :
          :   maximum RF displ.          1.0000000          :
          :   Hlow (freq-cutoff)         0.1000000E-01      :
          :   Hmax (freq-cutoff)         5.0000000          :
          :   S6 in model hess.         20.0000000          :
          ...................................................

generating ANC from exact Hessian ...
Using Lindh-Hessian (1995)
 Shifting diagonal of input Hessian by    0.0000000000000000     
 Lowest  eigenvalues of input Hessian
    0.000000    0.000000    0.000000    0.000000    0.000000    0.000000
    0.010445    0.010550    0.010550    0.011533    0.011533    0.020735
    0.052922    0.055673    0.055673    0.059153    0.059153    0.059434
 Highest eigenvalues
    1.106461    1.113740    1.113741    1.273666    1.273668    1.497017


........................................................................
.............................. CYCLE    1 ..............................
........................................................................

 iter      E             dE          RMSdq      gap      omega  full diag
   1    -18.0937157 -0.180937E+02  0.673E-06   12.94       0.0  T
   2    -18.0937157 -0.390799E-13  0.418E-06   12.94    6389.7  T
   3    -18.0937157  0.177636E-13  0.860E-07   12.94   31062.6  T
     SCC iter.                  ...        0 min,  0.000 sec
     gradient                   ...        0 min,  0.001 sec
 * total energy  :   -17.8965570 Eh     change       -0.4941825E-11 Eh
   gradient norm :     0.0365219 Eh/α   predicted     0.0000000E+00 (-100.00%)
   displ. norm   :     0.0835962 α      lambda       -0.1565920E-02
   maximum displ.:     0.0549630 α      in ANC's #6, #7, #27, ...

........................................................................
.............................. CYCLE    2 ..............................
........................................................................

 iter      E             dE          RMSdq      gap      omega  full diag
   1    -18.0999909 -0.181000E+02  0.106E-01   12.66       0.0  T
   2    -18.1000066 -0.157099E-04  0.649E-02   12.67       1.0  T
   3    -18.1000070 -0.418380E-06  0.232E-02   12.66       1.2  T
   4    -18.1000090 -0.198763E-05  0.578E-03   12.66       4.6  T
   5    -18.1000091 -0.679470E-07  0.613E-04   12.66      43.6  T
   6    -18.1000091 -0.112824E-09  0.297E-04   12.66      89.9  T
     SCC iter.                  ...        0 min,  0.000 sec
     gradient                   ...        0 min,  0.001 sec
 * total energy  :   -17.8976067 Eh     change       -0.1049637E-02 Eh
   gradient norm :     0.0163282 Eh/α   predicted    -0.7884320E-03 ( -24.89%)
   displ. norm   :     0.0288319 α      lambda       -0.3923681E-03
   maximum displ.:     0.0205983 α      in ANC's #27, #36, #7, ...

........................................................................
.............................. CYCLE    3 ..............................
........................................................................

 iter      E             dE          RMSdq      gap      omega  full diag
   1    -18.1025461 -0.181025E+02  0.477E-02   12.34       0.0  T
   2    -18.1025548 -0.872737E-05  0.325E-02   12.35       1.0  T
   3    -18.1025559 -0.109589E-05  0.159E-02   12.34       1.7  T
   4    -18.1025562 -0.279402E-06  0.482E-03   12.34       5.5  T
   5    -18.1025562 -0.310141E-07  0.395E-04   12.34      67.7  T
   6    -18.1025562 -0.109051E-09  0.957E-05   12.34     279.4  T
     SCC iter.                  ...        0 min,  0.000 sec
     gradient                   ...        0 min,  0.001 sec
 * total energy  :   -17.8978262 Eh     change       -0.2195799E-03 Eh
   gradient norm :     0.0048164 Eh/α   predicted    -0.1963456E-03 ( -10.58%)
   displ. norm   :     0.0088030 α      lambda       -0.2554945E-04
   maximum displ.:     0.0065023 α      in ANC's #6, #36, #24, ...

........................................................................
.............................. CYCLE    4 ..............................
........................................................................

 iter      E             dE          RMSdq      gap      omega  full diag
   1    -18.1021547 -0.181022E+02  0.111E-02   12.23       0.0  T
   2    -18.1021554 -0.672343E-06  0.687E-03   12.23       3.9  T
   3    -18.1021554 -0.664228E-07  0.369E-03   12.23       7.2  T
   4    -18.1021554 -0.994319E-08  0.141E-03   12.23      19.0  T
   5    -18.1021554 -0.253106E-08  0.264E-04   12.23     101.2  T
   6    -18.1021554 -0.225675E-09  0.530E-05   12.23     504.1  T
     SCC iter.                  ...        0 min,  0.000 sec
     gradient                   ...        0 min,  0.001 sec
 * total energy  :   -17.8978438 Eh     change       -0.1753520E-04 Eh
   gradient norm :     0.0023621 Eh/α   predicted    -0.1277549E-04 ( -27.14%)
   displ. norm   :     0.0084954 α      lambda       -0.9172576E-05
   maximum displ.:     0.0075119 α      in ANC's #6, #36, #21, ...

........................................................................
.............................. CYCLE    5 ..............................
........................................................................

 iter      E             dE          RMSdq      gap      omega  full diag
   1    -18.1017618 -0.181018E+02  0.794E-03   12.16       0.0  T
   2    -18.1017621 -0.261429E-06  0.450E-03   12.16       5.9  T
   3    -18.1017621 -0.177184E-07  0.229E-03   12.16      11.7  T
   4    -18.1017621 -0.166558E-08  0.731E-04   12.16      36.6  T
   5    -18.1017621 -0.118618E-08  0.196E-04   12.16     136.3  T
     SCC iter.                  ...        0 min,  0.000 sec
     gradient                   ...        0 min,  0.001 sec
 * total energy  :   -17.8978489 Eh     change       -0.5170873E-05 Eh
   gradient norm :     0.0005241 Eh/α   predicted    -0.4585916E-05 ( -11.31%)
   displ. norm   :     0.0024758 α      lambda       -0.4560656E-06
   maximum displ.:     0.0020775 α      in ANC's #6, #27, #36, ...

........................................................................
.............................. CYCLE    6 ..............................
........................................................................

 iter      E             dE          RMSdq      gap      omega  full diag
   1    -18.1017350 -0.181017E+02  0.238E-03   12.15       0.0  T
   2    -18.1017350 -0.128788E-07  0.149E-03   12.15      17.9  T
   3    -18.1017350 -0.295142E-09  0.568E-04   12.15      47.0  T
   4    -18.1017350 -0.524309E-09  0.141E-04   12.15     189.5  T
     SCC iter.                  ...        0 min,  0.000 sec
     gradient                   ...        0 min,  0.001 sec
 * total energy  :   -17.8978492 Eh     change       -0.2607372E-06 Eh
   gradient norm :     0.0001517 Eh/α   predicted    -0.2280543E-06 ( -12.53%)
   displ. norm   :     0.0007706 α      lambda       -0.3460780E-07
   maximum displ.:     0.0006962 α      in ANC's #6, #36, #27, ...

   *** GEOMETRY OPTIMIZATION CONVERGED AFTER 6 ITERATIONS ***

------------------------------------------------------------------------
 total energy gain   :        -0.0012922 Eh       -0.8109 kcal/mol
 total RMSD          :         0.0270387 a0        0.0143 Å
 total power (kW/mol):        -0.5654379 (step) -243.6719 (real)
------------------------------------------------------------------------

 ANCopt (total)                0 d,  0 h,  0 min,  0.014 sec
 optimizer setup                ...        0 min,  0.000 sec (  0.430%)
 model hessian                  ...        0 min,  0.002 sec ( 11.524%)
 ANC generation                 ...        0 min,  0.001 sec (  3.876%)
 coordinate transformation      ...        0 min,  0.000 sec (  1.710%)
 single point calculation       ...        0 min,  0.008 sec ( 57.237%)
 optimization log               ...        0 min,  0.000 sec (  3.134%)
 hessian update                 ...        0 min,  0.000 sec (  0.164%)
 rational function              ...        0 min,  0.003 sec ( 21.067%)

================
 final structure:
================
14
 xtb: 6.7.1 (6d44803)
C           -0.64831505893616        1.22761288314583        0.45427367749275
C           -0.02035378371177        0.08784066498236       -0.34028622228889
C            1.45826836005957       -0.08400756036018       -0.01030708110127
C           -0.79342096064774       -1.21495487413458       -0.16756548877116
F           -0.10130263437033        0.43719176335505       -1.69363876392187
H           -0.11098209216450        2.15405439137893        0.26584014793072
H           -1.68516891093819        1.36339177125570        0.15590154723608
H           -0.61077302462411        1.00514835446681        1.51665093291782
H            1.89128751341323       -0.86341038651398       -0.63284497194730
H            1.99273203749327        0.84422141930309       -0.19810293256537
H            1.57690590332126       -0.35697004678013        1.03418414585411
H           -0.76146950131331       -1.53145066305774        0.87087315384775
H           -0.35733301307365       -1.99282002197275       -0.78988443303542
H           -1.83007583450757       -1.07584769506839       -0.46509471164794

 Bond Distances (Angstroems)
 ---------------------------
C1-C2=1.5247         C1-H6=1.0874         C1-H7=1.0874         C1-H8=1.0861         C2-C1=1.5247         C2-C3=1.5247         
C2-C4=1.5247         C2-F5=1.4001         C3-C2=1.5247         C3-H9=1.0874         C3-H10=1.0874        C3-H11=1.0861        
C4-C2=1.5247         C4-H12=1.0861        C4-H13=1.0874        C4-H14=1.0874        F5-C2=1.4001         H6-C1=1.0874         
H7-C1=1.0874         H8-C1=1.0861         H9-C3=1.0874         H10-C3=1.0874        H11-C3=1.0861        H12-C4=1.0861        
H13-C4=1.0874        H14-C4=1.0874        
 C  H  Rav=1.0870 sigma=0.0006  Rmin=1.0861  Rmax=1.0874     9
 C  C  Rav=1.5247 sigma=0.0000  Rmin=1.5247  Rmax=1.5247     3
 F  C  Rav=1.4001 sigma=0.0000  Rmin=1.4001  Rmax=1.4001     1

 selected bond angles (degree)
 --------------------
H6-C1-C2=110.06                H7-C1-C2=110.06                H7-C1-H6=108.49                H8-C1-C2=110.02                
H8-C1-H6=109.08                H8-C1-H7=109.08                C3-C2-C1=111.77                C4-C2-C1=111.77                
C4-C2-C3=111.77                F5-C2-C1=107.06                F5-C2-C3=107.06                F5-C2-C4=107.06                
H9-C3-C2=110.06                H10-C3-C2=110.06               H10-C3-H9=108.49               H11-C3-C2=110.02               
H11-C3-H9=109.08               H11-C3-H10=109.08              H12-C4-C2=110.02               H13-C4-C2=110.06               
H13-C4-H12=109.08              H14-C4-C2=110.06               H14-C4-H12=109.08              H14-C4-H13=108.49              

 selected dihedral angles (degree)
 ---------------------------------
C3-C2-C1-H6= 57.17            C3-C2-C1-H7=176.70            C3-C2-C1-H8=296.94            C4-C2-C1-H6=183.30            
C4-C2-C1-H7=302.83            C4-C2-C1-H8= 63.06            F5-C2-C1-H6=300.23            F5-C2-C1-H7= 59.77            
F5-C2-C1-H8=180.00            H9-C3-C2-C1=183.30            H9-C3-C2-C4= 57.17            H9-C3-C2-F5=300.23            
H10-C3-C2-C1=302.83           H10-C3-C2-C4=176.70           H10-C3-C2-F5= 59.77           H11-C3-C2-C1= 63.06           
H11-C3-C2-C4=296.94           H11-C3-C2-F5=180.00           H12-C4-C2-C1=296.94           H12-C4-C2-C3= 63.06           
H12-C4-C2-F5=180.00           H13-C4-C2-C1=176.70           H13-C4-C2-C3=302.83           H13-C4-C2-F5= 59.77           
H14-C4-C2-C1= 57.17           H14-C4-C2-C3=183.30           H14-C4-C2-F5=300.23           
           -------------------------------------------------
          |                Final Singlepoint                |
           -------------------------------------------------

          ...................................................
          :                      SETUP                      :
          :.................................................:
          :  # basis functions                  29          :
          :  # atomic orbitals                  29          :
          :  # shells                           19          :
          :  # electrons                        32          :
          :  max. iterations                   250          :
          :  Hamiltonian                  GFN2-xTB          :
          :  restarted?                      false          :
          :  GBSA solvation                  false          :
          :  PC potential                    false          :
          :  electronic temp.          300.0000000     K    :
          :  accuracy                    1.0000000          :
          :  -> integral cutoff          0.2500000E+02      :
          :  -> integral neglect         0.1000000E-07      :
          :  -> SCF convergence          0.1000000E-05 Eh   :
          :  -> wf. convergence          0.1000000E-03 e    :
          :  Broyden damping             0.4000000          :
          :  net charge                          0          :
          :  unpaired electrons                  0          :
          ...................................................

 iter      E             dE          RMSdq      gap      omega  full diag
   1    -18.1017350 -0.181017E+02  0.391E-05   12.15       0.0  T
   2    -18.1017350 -0.195755E-11  0.187E-05   12.15    1429.7  T
   3    -18.1017350 -0.369482E-12  0.370E-06   12.15    7229.1  T

   *** convergence criteria satisfied after 3 iterations ***

         #    Occupation            Energy/Eh            Energy/eV
      -------------------------------------------------------------
         1        2.0000           -0.7854553             -21.3733
       ...           ...                  ...                  ...
        10        2.0000           -0.4832104             -13.1488
        11        2.0000           -0.4718260             -12.8390
        12        2.0000           -0.4659433             -12.6790
        13        2.0000           -0.4659433             -12.6790
        14        2.0000           -0.4626393             -12.5891
        15        2.0000           -0.4323267             -11.7642
        16        2.0000           -0.4323266             -11.7642 (HOMO)
        17                          0.0141514               0.3851 (LUMO)
        18                          0.0845998               2.3021
        19                          0.1013437               2.7577
        20                          0.1013438               2.7577
        21                          0.1428760               3.8879
       ...                                ...                  ...
        29                          0.2593169               7.0564
      -------------------------------------------------------------
                  HL-Gap            0.4464780 Eh           12.1493 eV
             Fermi-level           -0.2090876 Eh           -5.6896 eV

 SCC (total)                   0 d,  0 h,  0 min,  0.001 sec
 SCC setup                      ...        0 min,  0.000 sec (  1.329%)
 Dispersion                     ...        0 min,  0.000 sec (  0.692%)
 classical contributions        ...        0 min,  0.000 sec (  0.225%)
 integral evaluation            ...        0 min,  0.000 sec ( 16.729%)
 iterations                     ...        0 min,  0.000 sec ( 17.983%)
 molecular gradient             ...        0 min,  0.001 sec ( 61.433%)
 printout                       ...        0 min,  0.000 sec (  1.516%)

         :::::::::::::::::::::::::::::::::::::::::::::::::::::
         ::                     SUMMARY                     ::
         :::::::::::::::::::::::::::::::::::::::::::::::::::::
         :: total energy             -17.897849208619 Eh    ::
         :: gradient norm              0.000150338513 Eh/a0 ::
         :: HOMO-LUMO gap             12.149285832774 eV    ::
         ::.................................................::
         :: SCC energy               -18.101725706084 Eh    ::
         :: -> isotropic ES            0.019442227965 Eh    ::
         :: -> anisotropic ES          0.003059232266 Eh    ::
         :: -> anisotropic XC          0.003706486449 Eh    ::
         :: -> dispersion             -0.006696953273 Eh    ::
         :: repulsion energy           0.203876497465 Eh    ::
         :: add. restraining           0.000000000000 Eh    ::
         :: total charge              -0.000000000000 e     ::
         :::::::::::::::::::::::::::::::::::::::::::::::::::::

           -------------------------------------------------
          |                Property Printout                |
           -------------------------------------------------

    * Orbital Energies and Occupations

         #    Occupation            Energy/Eh            Energy/eV
      -------------------------------------------------------------
         1        2.0000           -0.7854553             -21.3733
       ...           ...                  ...                  ...
         4        2.0000           -0.6061929             -16.4953
         5        2.0000           -0.5628146             -15.3150
         6        2.0000           -0.5294241             -14.4064
         7        2.0000           -0.5208075             -14.1719
         8        2.0000           -0.5208075             -14.1719
         9        2.0000           -0.4832104             -13.1488
        10        2.0000           -0.4832104             -13.1488
        11        2.0000           -0.4718260             -12.8390
        12        2.0000           -0.4659433             -12.6790
        13        2.0000           -0.4659433             -12.6790
        14        2.0000           -0.4626393             -12.5891
        15        2.0000           -0.4323267             -11.7642
        16        2.0000           -0.4323266             -11.7642 (HOMO)
        17                          0.0141514               0.3851 (LUMO)
        18                          0.0845998               2.3021
        19                          0.1013437               2.7577
        20                          0.1013438               2.7577
        21                          0.1428760               3.8879
        22                          0.1884060               5.1268
        23                          0.1884060               5.1268
        24                          0.2203525               5.9961
        25                          0.2203525               5.9961
        26                          0.2396009               6.5199
        27                          0.2581312               7.0241
       ...                                ...                  ...
        29                          0.2593169               7.0564
      -------------------------------------------------------------
                  HL-Gap            0.4464780 Eh           12.1493 eV
             Fermi-level           -0.2090876 Eh           -5.6896 eV

     #   Z          covCN         q      C6AA      α(0)
     1   6          3.757    -0.118    22.813     6.810
     2   6          3.707     0.182    17.828     6.036
     3   6          3.757    -0.118    22.813     6.810
     4   6          3.757    -0.118    22.813     6.810
     5   9          0.786    -0.278    12.072     4.104
     6   1          0.925     0.053     2.281     2.362
     7   1          0.925     0.053     2.281     2.362
     8   1          0.925     0.044     2.400     2.422
     9   1          0.925     0.053     2.281     2.362
    10   1          0.925     0.053     2.281     2.362
    11   1          0.925     0.044     2.400     2.422
    12   1          0.925     0.044     2.400     2.422
    13   1          0.925     0.053     2.281     2.362
    14   1          0.925     0.053     2.281     2.362

 Mol. C6AA /au·bohr⁶  :       1267.455465
 Mol. C8AA /au·bohr⁸  :      26012.250451
 Mol. α(0) /au        :         52.008507


Wiberg/Mayer (AO) data.
largest (>0.10) Wiberg bond orders for each atom

 ---------------------------------------------------------------------------
     #   Z sym  total        # sym  WBO       # sym  WBO       # sym  WBO
 ---------------------------------------------------------------------------
     1   6      3.994 --     2      0.998     8      0.985     7      0.984
                             6      0.984
     2   6      3.901 --     3      0.998     1      0.998     4      0.998
                             5      0.900
     3   6      3.994 --     2      0.998    11      0.985    10      0.984
                             9      0.984
     4   6      3.994 --     2      0.998    12      0.985    13      0.984
                            14      0.984
     5   9      0.980 --     2      0.900
     6   1      0.997 --     1      0.984
     7   1      0.997 --     1      0.984
     8   1      0.998 --     1      0.985
     9   1      0.997 --     3      0.984
    10   1      0.997 --     3      0.984
    11   1      0.998 --     3      0.985
    12   1      0.998 --     4      0.985
    13   1      0.997 --     4      0.984
    14   1      0.997 --     4      0.984
 ---------------------------------------------------------------------------

Topologies differ in total number of bonds
Writing topology from bond orders to xtbtopo.mol

molecular dipole:
                 x           y           z       tot (Debye)
 q only:        0.049      -0.213       0.827
   full:        0.056      -0.241       0.933       2.454
molecular quadrupole (traceless):
                xx          xy          yy          xz          yz          zz
 q only:        2.013       0.088       1.654      -0.341       1.471      -3.667
  q+dip:        2.499       0.109       2.053      -0.423       1.827      -4.552
   full:        2.395       0.105       1.967      -0.406       1.751      -4.363

           -------------------------------------------------
          |                Geometry Summary                 |
           -------------------------------------------------

      molecular mass/u    :       76.1128135
   center of mass at/Å    :       -0.0244969       0.1057211      -0.4095534
  moments of inertia/u·Å² :        0.1069562E+03   0.1069562E+03   0.1115484E+03
rotational constants/cm⁻¹ :        0.1576125E+00   0.1576125E+00   0.1511240E+00

 * 12 selected distances

     #   Z          #   Z                                           value/Å
     1   6          2   6                                         1.5247104
     2   6          3   6                                         1.5247104
     2   6          4   6                                         1.5247105 (max)
     1   6          6   1                                         1.0874410
     1   6          7   1                                         1.0874410
     1   6          8   1                                         1.0860688
     3   6          9   1                                         1.0874410
     3   6         10   1                                         1.0874410
     3   6         11   1                                         1.0860688
     4   6         12   1                                         1.0860688 (min)
     4   6         13   1                                         1.0874410
     4   6         14   1                                         1.0874410

 * 2 distinct bonds (by element types)

   Z      Z             #   av. dist./Å        max./Å        min./Å
   1 H    6 C           9     1.0869836     1.0874410     1.0860688
   6 C    6 C           3     1.5247104     1.5247105     1.5247104


optimized geometry written to: xtbopt.xyz


           -------------------------------------------------
          | TOTAL ENERGY              -17.897849208619 Eh   |
          | GRADIENT NORM               0.000150338513 Eh/α |
          | HOMO-LUMO GAP              12.149285832774 eV   |
           -------------------------------------------------

------------------------------------------------------------------------
 * finished run on 2026/04/08 at 14:20:47.113     
------------------------------------------------------------------------
 total:
 * wall-time:     0 d,  0 h,  0 min,  0.043 sec
 *  cpu-time:     0 d,  0 h,  0 min,  0.018 sec
 * ratio c/w:     0.423 speedup
 SCF:
 * wall-time:     0 d,  0 h,  0 min,  0.009 sec
 *  cpu-time:     0 d,  0 h,  0 min,  0.003 sec
 * ratio c/w:     0.302 speedup
 ANC optimizer:
 * wall-time:     0 d,  0 h,  0 min,  0.017 sec
 *  cpu-time:     0 d,  0 h,  0 min,  0.012 sec
 * ratio c/w:     0.684 speedup

