52
 energy: -108.260638664877 gnorm: 0.000413873636 xtb: 6.7.1 (6d44803)
C           -3.52852146474472        1.39371379824843       -3.71180283295202
O           -4.32951510502672        1.37681989300084       -2.54774074450902
N           -3.54925276023766        1.29453624337048       -1.42957777907666
C           -4.09702002904561        1.31641685166360       -0.26789078373837
C           -3.11438924940229        1.23548386306706        0.86035524177613
O           -3.36797084034258        1.45914729132218        2.02413830073790
N           -1.87388531337914        0.85768324400939        0.44535605199913
C           -0.76432653898009        0.80732232487259        1.32999971081498
C            0.59705458462991        1.28814820193115        0.79936149066728
O            1.00380591950926        2.24099330050371        0.21456875171009
N            1.18123403671679        0.07848635891713        1.13540222826944
C            2.46210528565715       -0.39366442749253        1.37166250994926
C            3.50717063802943        0.60426442577227        0.94142245311564
O            4.34796752002494        0.24289355286406       -0.06595411417409
O            3.55983747954584        1.70127065302550        1.39770476806402
C            2.64853665284479       -1.55407860916354        2.02871013665604
C            3.95732029139980       -2.23555443896973        2.27994608512660
S            5.46069468110667       -1.57713129797358        1.48934029180964
C            4.84156791494416       -1.07649055125978       -0.18863869592553
N            3.88790060832789       -1.98417030802573       -0.67479058593181
C            2.71779878986761       -2.22780945891394       -0.65810074114471
O            1.63927726421616       -2.62111060903650       -0.75416780502317
C            4.67692676995808       -1.12092297751723       -3.10269041436753
O            3.90674319597798       -1.22960360076792       -3.96270130997513
N            5.61894073315277       -0.91861226816316       -2.39524144302968
N            5.96497932110743       -1.10414545252191       -1.07436429160990
C            7.08069645633004       -0.24212595722424       -0.71447737123326
C            1.49644434453180       -2.34609127787679        2.58906507977663
S            0.11504804114514       -1.29966019185759        3.17332753758929
C           -0.05711463162883       -0.55477591496938        1.53089916989851
C           -5.51399775294289        1.41382042676327        0.02150897500734
C           -6.07446815175744        1.47921580707811        1.26955813042355
S           -7.78669398346538        1.56925710344552        1.17354216233000
C           -7.62313418763892        1.50438939003806       -0.59842489283807
N           -8.71460839315867        1.60313473795309       -1.39033741074645
N           -6.41614604989002        1.42415584086496       -1.01015212826076
H           -2.83183093970851        2.23583096126917       -3.69895321767221
H           -2.96613421462077        0.46183386140454       -3.81900500721505
H           -4.22688423815858        1.50193698384672       -4.53834203454229
H           -1.73895258030737        0.78513477273003       -0.55426940300017
H           -1.05370976435324        1.27519468707598        2.27707194367460
H            4.20749909318832       -2.20212765573302        3.34398374843241
H            3.87121749731792       -3.28618153427880        1.98536835153499
H            7.84765462391114       -0.38429702302778       -1.47150874091942
H            6.79742133451702        0.81224715018664       -0.66738297864478
H            7.46141138685637       -0.56525567465814        0.25219630319898
H            1.82128836886374       -2.91531661901351        3.45871407813006
H            1.08977330489258       -3.04006027184605        1.84872368460335
H           -0.37931207100035       -1.32954510386497        0.82901388939459
H           -5.57752902160150        1.48790060064844        2.21636703431482
H           -8.57263885972318        1.37794560203042       -2.36123287719021
H           -9.61028099748200        1.37955429618800       -0.99227950530147
