      -----------------------------------------------------------      
     |                   =====================                   |     
     |                           x T B                           |     
     |                   =====================                   |     
     |                         S. Grimme                         |     
     |          Mulliken Center for Theoretical Chemistry        |     
     |                    University of Bonn                     |     
      -----------------------------------------------------------      

   * xtb version 6.7.1 (6d44803) compiled by 'michele@Mac.homenet.telecomitalia.it' on 2026-04-04

   xtb is free software: you can redistribute it and/or modify it under
   the terms of the GNU Lesser General Public License as published by
   the Free Software Foundation, either version 3 of the License, or
   (at your option) any later version.
   
   xtb is distributed in the hope that it will be useful,
   but WITHOUT ANY WARRANTY; without even the implied warranty of
   MERCHANTABILITY or FITNESS FOR A PARTICULAR PURPOSE.  See the
   GNU Lesser General Public License for more details.
   
   Cite this work as:
   * C. Bannwarth, E. Caldeweyher, S. Ehlert, A. Hansen, P. Pracht,
     J. Seibert, S. Spicher, S. Grimme, WIREs Comput. Mol. Sci., 2020, 11,
     e01493. DOI: 10.1002/wcms.1493
   
   for GFN2-xTB:
   * C. Bannwarth, S. Ehlert and S. Grimme., J. Chem. Theory Comput., 2019,
     15, 1652-1671. DOI: 10.1021/acs.jctc.8b01176
   for GFN1-xTB:
   * S. Grimme, C. Bannwarth, P. Shushkov, J. Chem. Theory Comput., 2017,
     13, 1989-2009. DOI: 10.1021/acs.jctc.7b00118
   for GFN0-xTB:
   * P. Pracht, E. Caldeweyher, S. Ehlert, S. Grimme, ChemRxiv, 2019, preprint.
     DOI: 10.26434/chemrxiv.8326202.v1
   for GFN-FF:
   * S. Spicher and S. Grimme, Angew. Chem. Int. Ed., 2020, 59, 15665-15673.
     DOI: 10.1002/anie.202004239
   
   for ALPB and GBSA implicit solvation:
   * S. Ehlert, M. Stahn, S. Spicher, S. Grimme, J. Chem. Theory Comput.,
     2021, 17, 4250-4261. DOI: 10.1021/acs.jctc.1c00471
   
   for ddCOSMO and CPCM-X implicit solvation:
   * M. Stahn, S. Ehlert, S. Grimme, J. Phys. Chem. A,
     2023, XX, XXXX-XXXX. DOI: 10.1021/acs.jpca.3c04382
   
   for DFT-D4:
   * E. Caldeweyher, C. Bannwarth and S. Grimme, J. Chem. Phys., 2017,
     147, 034112. DOI: 10.1063/1.4993215
   * E. Caldeweyher, S. Ehlert, A. Hansen, H. Neugebauer, S. Spicher,
     C. Bannwarth and S. Grimme, J. Chem. Phys., 2019, 150, 154122.
     DOI: 10.1063/1.5090222
   * E. Caldeweyher, J.-M. Mewes, S. Ehlert and S. Grimme, Phys. Chem. Chem. Phys.
     2020, 22, 8499-8512. DOI: 10.1039/D0CP00502A
   
   for sTDA-xTB:
   * S. Grimme and C. Bannwarth, J. Chem. Phys., 2016, 145, 054103.
     DOI: 10.1063/1.4959605
   
   in the mass-spec context:
   * V. Asgeirsson, C. Bauer and S. Grimme, Chem. Sci., 2017, 8, 4879.
     DOI: 10.1039/c7sc00601b
   * J. Koopman and S. Grimme, ACS Omega 2019, 4, 12, 15120-15133.
     DOI: 10.1021/acsomega.9b02011
   
   for metadynamics refer to:
   * S. Grimme, J. Chem. Theory Comput., 2019, 155, 2847-2862
     DOI: 10.1021/acs.jctc.9b00143
   
   for SPH calculations refer to:
   * S. Spicher and S. Grimme, J. Chem. Theory Comput., 2021, 17, 1701-1714
     DOI: 10.1021/acs.jctc.0c01306
   
   for ONIOM refer to:
   * C. Plett, A. Katbashev, S. Ehlert, S. Grimme, M. Bursch,
     Phys. Chem. Chem. Phys., 2023, 25, 17860-17868. DOI: 10.1039/D3CP02178E
   
   for DIPRO refer to:
   * J. Kohn, N. Gildemeister, S. Grimme, D. Fazzi, A. Hansen,
     J. Chem. Phys. 159, 144106 (2023). DOI: 10.1063/5.0167484
   
   for PTB refer to:
   * S. Grimme, M. Mueller, A. Hansen, J. Chem. Phys., 2023, 158, 124111.
     DOI: 10.1063/5.0137838
   
   with help from (in alphabetical order)
   P. Atkinson, C. Bannwarth, F. Bohle, G. Brandenburg, E. Caldeweyher
   M. Checinski, S. Dohm, S. Ehlert, S. Ehrlich, I. Gerasimov, C. Hölzer
   A. Katbashev, J. Kohn, J. Koopman, C. Lavigne, S. Lehtola, F. März, M. Müller,
   F. Musil, H. Neugebauer, J. Pisarek, C. Plett, P. Pracht, F. Pultar,
   J. Seibert, P. Shushkov, S. Spicher, M. Stahn, M. Steiner, T. Strunk,
   J. Stückrath, T. Rose, and J. Unsleber
   
 * started run on 2026/04/08 at 14:24:17.774     
   ID    Z sym.   atoms
    1    6 C      1, 4, 5, 8, 9, 12, 13, 16, 17, 19, 21, 23, 27, 28, 30-32, 34
    2    8 O      2, 6, 10, 14, 15, 22, 24
    3    7 N      3, 7, 11, 20, 25, 26, 35, 36
    4   16 S      18, 29, 33
    5    1 H      37-52

           -------------------------------------------------
          |                Calculation Setup                |
           -------------------------------------------------

          program call               : xtb 2492.xyz --opt --gfn2 --chrg 0 --cmaes --maxstep 0.2 --cycles 1000 --gfniter 3000 --namespace 2492
          calculation namespace      : 2492
          coordinate file            : 2492.xyz
          omp threads                :                     1

########################################################################
[WARNING] Please study the warnings concerning your input carefully
-3- prog_main_parseArguments: Unknown option '--gfniter' provided
-2- prog_main_parseArguments: Unknown option '--maxstep' provided
-1- prog_main_parseArguments: Unknown option '--cmaes' provided
########################################################################

           -------------------------------------------------
          |                 G F N 2 - x T B                 |
           -------------------------------------------------

        Reference                      10.1021/acs.jctc.8b01176
      * Hamiltonian:
        H0-scaling (s, p, d)           1.850000    2.230000    2.230000
        zeta-weighting                 0.500000
      * Dispersion:
        s8                             2.700000
        a1                             0.520000
        a2                             5.000000
        s9                             5.000000
      * Repulsion:
        kExp                           1.500000    1.000000
        rExp                           1.000000
      * Coulomb:
        alpha                          2.000000
        third order                    shell-resolved
        anisotropic                    true
        a3                             3.000000
        a5                             4.000000
        cn-shift                       1.200000
        cn-exp                         4.000000
        max-rad                        5.000000

q/qsh data taken from xtbrestart
CAMM data taken from xtbrestart

          ...................................................
          :                      SETUP                      :
          :.................................................:
          :  # basis functions                 178          :
          :  # atomic orbitals                 175          :
          :  # shells                           91          :
          :  # electrons                       188          :
          :  max. iterations                   250          :
          :  Hamiltonian                  GFN2-xTB          :
          :  restarted?                       true          :
          :  GBSA solvation                  false          :
          :  PC potential                    false          :
          :  electronic temp.          300.0000000     K    :
          :  accuracy                    1.0000000          :
          :  -> integral cutoff          0.2500000E+02      :
          :  -> integral neglect         0.1000000E-07      :
          :  -> SCF convergence          0.1000000E-05 Eh   :
          :  -> wf. convergence          0.1000000E-03 e    :
          :  Broyden damping             0.4000000          :
          :  net charge                          0          :
          :  unpaired electrons                  0          :
          ...................................................

 iter      E             dE          RMSdq      gap      omega  full diag
   1   -108.4642366 -0.108464E+03  0.523E+00    0.44       0.0  T
   2   -105.2496318  0.321460E+01  0.568E+00    0.20       1.0  T
   3   -105.7953276 -0.545696E+00  0.430E+00    0.42       1.0  T
   4   -108.7419190 -0.294659E+01  0.258E+00    0.58       1.0  T
   5   -108.6996327  0.422863E-01  0.205E+00    0.54       1.0  T
   6   -108.8910593 -0.191427E+00  0.158E+00    0.62       1.0  T
   7   -108.9384393 -0.473800E-01  0.130E+00    0.33       1.0  T
   8   -109.0336890 -0.952497E-01  0.887E-01    0.09       1.0  T
   9   -109.0350473 -0.135834E-02  0.105E+00    0.06       1.0  T
  10   -109.0479120 -0.128647E-01  0.986E-01    0.05       1.0  T
  11   -108.8485748  0.199337E+00  0.138E+00    0.40       1.0  T
  12   -108.8979359 -0.493612E-01  0.127E+00    0.21       1.0  T
  13   -108.6144390  0.283497E+00  0.189E+00    0.22       1.0  T
  14   -108.8512833 -0.236844E+00  0.137E+00    0.06       1.0  T
  15   -108.7970203  0.542630E-01  0.149E+00    0.08       1.0  T
  16   -109.1121904 -0.315170E+00  0.112E-01    0.02       1.0  T
  17   -108.9524447  0.159746E+00  0.102E+00    0.01       1.0  T
  18   -109.1042611 -0.151816E+00  0.231E-01    0.02       1.0  T
  19   -109.1109974 -0.673633E-02  0.103E-01    0.03       1.0  T
  20   -109.1066618  0.433555E-02  0.196E-01    0.02       1.0  T
  21   -109.1112992 -0.463739E-02  0.998E-02    0.02       1.0  T
  22   -109.1117148 -0.415588E-03  0.777E-02    0.02       1.0  T
  23   -109.1122333 -0.518454E-03  0.467E-02    0.02       1.0  T
  24   -109.1123280 -0.947275E-04  0.370E-02    0.03       1.0  T
  25   -109.1124748 -0.146811E-03  0.211E-02    0.02       1.0  T
  26   -109.1124965 -0.216666E-04  0.167E-02    0.02       1.0  T
  27   -109.1125347 -0.382655E-04  0.475E-03    0.02       2.9  T
  28   -109.1125375 -0.281086E-05  0.202E-03    0.02       6.9  T
  29   -109.1125381 -0.593337E-06  0.368E-04    0.02      37.7  T
  30   -109.1125381  0.440176E-08  0.407E-04    0.02      34.1  T

   *** convergence criteria satisfied after 30 iterations ***

         #    Occupation            Energy/Eh            Energy/eV
      -------------------------------------------------------------
         1        2.0000           -0.7778807             -21.1672
       ...           ...                  ...                  ...
        88        2.0000           -0.4293406             -11.6830
        89        2.0000           -0.4285463             -11.6613
        90        2.0000           -0.4261914             -11.5973
        91        2.0000           -0.4204453             -11.4409
        92        1.9989           -0.4133454             -11.2477
        93        1.8060           -0.4083390             -11.1115
        94        1.3178           -0.4068452             -11.0708 (HOMO)
        95        0.8773           -0.4059853             -11.0474 (LUMO)
        96                         -0.3319868              -9.0338
        97                         -0.3209013              -8.7322
        98                         -0.3021852              -8.2229
        99                         -0.2941798              -8.0050
       ...                                ...                  ...
       175                          0.7128614              19.3979
      -------------------------------------------------------------
                  HL-Gap            0.0008599 Eh            0.0234 eV
             Fermi-level           -0.4062196 Eh          -11.0538 eV

 SCC (total)                   0 d,  0 h,  0 min,  0.099 sec
 SCC setup                      ...        0 min,  0.000 sec (  0.135%)
 Dispersion                     ...        0 min,  0.000 sec (  0.194%)
 classical contributions        ...        0 min,  0.000 sec (  0.036%)
 integral evaluation            ...        0 min,  0.004 sec (  4.211%)
 iterations                     ...        0 min,  0.077 sec ( 78.017%)
 molecular gradient             ...        0 min,  0.017 sec ( 17.103%)
 printout                       ...        0 min,  0.000 sec (  0.300%)

         :::::::::::::::::::::::::::::::::::::::::::::::::::::
         ::                     SUMMARY                     ::
         :::::::::::::::::::::::::::::::::::::::::::::::::::::
         :: total energy            -108.102011414578 Eh    ::
         :: gradient norm              0.225515629180 Eh/a0 ::
         :: HOMO-LUMO gap              0.023398273251 eV    ::
         ::.................................................::
         :: SCC energy              -109.111446875944 Eh    ::
         :: -> isotropic ES            0.217736455102 Eh    ::
         :: -> anisotropic ES          0.008931267533 Eh    ::
         :: -> anisotropic XC          0.038698953325 Eh    ::
         :: -> dispersion             -0.068171178061 Eh    ::
         :: repulsion energy           1.009435461366 Eh    ::
         :: add. restraining           0.000000000000 Eh    ::
         :: total charge              -0.000000000000 e     ::
         :::::::::::::::::::::::::::::::::::::::::::::::::::::

      ----------------------------------------------------------- 
     |                   =====================                   |
     |                        A N C O P T                        |
     |                   =====================                   |
     |               Approximate Normal Coordinate               |
     |                Rational Function Optimizer                |
      ----------------------------------------------------------- 

          ...................................................
          :                      SETUP                      :
          :.................................................:
          :   optimization level            normal          :
          :   max. optcycles                  1000          :
          :   ANC micro-cycles                  20          :
          :   degrees of freedom               150          :
          :.................................................:
          :   RF solver                   davidson          :
          :   write xtbopt.log                true          :
          :   linear?                        false          :
          :   energy convergence         0.5000000E-05 Eh   :
          :   grad. convergence          0.1000000E-02 Eh/α :
          :   maximum RF displ.          1.0000000          :
          :   Hlow (freq-cutoff)         0.1000000E-01      :
          :   Hmax (freq-cutoff)         5.0000000          :
          :   S6 in model hess.         20.0000000          :
          ...................................................

generating ANC from exact Hessian ...
Using Lindh-Hessian (1995)
 Shifting diagonal of input Hessian by    9.9374635415592303E-003
 Lowest  eigenvalues of input Hessian
    0.000000    0.000000    0.000000    0.000000    0.000000    0.000000
    0.010000    0.010060    0.010177    0.010280    0.010490    0.010723
    0.011010    0.011429    0.011763    0.012409    0.012780    0.012908
 Highest eigenvalues
    2.122605    2.180762    2.257520    2.260575    2.334579    2.523462


........................................................................
.............................. CYCLE    1 ..............................
........................................................................

 iter      E             dE          RMSdq      gap      omega  full diag
   1   -109.1125381 -0.109113E+03  0.608E-04    0.02       0.0  T
   2   -109.1124999  0.381913E-04  0.156E-02    0.02       1.0  T
   3   -109.1125359 -0.359415E-04  0.405E-03    0.02       3.4  T
   4   -109.1125381 -0.229295E-05  0.296E-04    0.02      46.8  T
   5   -109.1125382 -0.832827E-08  0.191E-04    0.02      72.7  T
   6   -109.1125382 -0.549527E-08  0.115E-05    0.02    1210.9  T
     SCC iter.                  ...        0 min,  0.015 sec
     gradient                   ...        0 min,  0.017 sec
 * total energy  :  -108.1020114 Eh     change       -0.2210027E-07 Eh
   gradient norm :     0.2255355 Eh/α   predicted     0.0000000E+00 (-100.00%)
   displ. norm   :     0.3633502 α      lambda       -0.5211001E-01
   maximum displ.:     0.1114825 α      in ANC's #82, #94, #31, ...

........................................................................
.............................. CYCLE    2 ..............................
........................................................................

 iter      E             dE          RMSdq      gap      omega  full diag
   1   -109.1174966 -0.109117E+03  0.903E-01    0.15       0.0  T
   2   -108.7484727  0.369024E+00  0.189E+00    0.41       1.0  T
   3   -108.6510291  0.974437E-01  0.200E+00    0.30       1.0  T
   4   -108.9926346 -0.341606E+00  0.143E+00    0.40       1.0  T
   5   -109.0072532 -0.146186E-01  0.121E+00    0.18       1.0  T
   6   -109.1113763 -0.104123E+00  0.863E-01    0.17       1.0  T
   7   -109.2135868 -0.102210E+00  0.217E-01    0.03       1.0  T
   8   -109.1488937  0.646931E-01  0.671E-01    0.11       1.0  T
   9   -109.1540083 -0.511463E-02  0.655E-01    0.03       1.0  T
  10   -109.2161075 -0.620992E-01  0.131E-01    0.03       1.0  T
  11   -109.2164201 -0.312597E-03  0.116E-01    0.04       1.0  T
  12   -109.2175597 -0.113965E-02  0.750E-02    0.03       1.0  T
  13   -109.2183594 -0.799706E-03  0.174E-02    0.03       1.0  T
  14   -109.2184020 -0.425828E-04  0.350E-03    0.03       4.0  T
  15   -109.2183977  0.424770E-05  0.619E-03    0.03       2.2  T
  16   -109.2184032 -0.549065E-05  0.139E-03    0.03      10.0  T
  17   -109.2184034 -0.177942E-06  0.870E-04    0.03      15.9  T
  18   -109.2184035 -0.991548E-07  0.213E-04    0.03      65.0  T
     SCC iter.                  ...        0 min,  0.045 sec
     gradient                   ...        0 min,  0.017 sec
 * total energy  :  -108.1404481 Eh     change       -0.3843667E-01 Eh
   gradient norm :     0.1151139 Eh/α   predicted    -0.2951868E-01 ( -23.20%)
   displ. norm   :     0.3780173 α      lambda       -0.2567204E-01
   maximum displ.:     0.1062645 α      in ANC's #82, #31, #94, ...

........................................................................
.............................. CYCLE    3 ..............................
........................................................................

 iter      E             dE          RMSdq      gap      omega  full diag
   1   -109.1826023 -0.109183E+03  0.917E-01    0.19       0.0  T
   2   -108.7813387  0.401264E+00  0.194E+00    0.58       1.0  T
   3   -108.7189062  0.624325E-01  0.200E+00    0.19       1.0  T
   4   -109.0311724 -0.312266E+00  0.141E+00    0.51       1.0  T
   5   -109.1552246 -0.124052E+00  0.954E-01    0.09       1.0  T
   6   -109.1643611 -0.913651E-02  0.954E-01    0.44       1.0  T
   7   -109.1913598 -0.269987E-01  0.811E-01    0.17       1.0  T
   8   -109.1497401  0.416197E-01  0.992E-01    0.10       1.0  T
   9   -109.2352082 -0.854681E-01  0.587E-01    0.10       1.0  T
  10   -109.2755844 -0.403762E-01  0.294E-01    0.03       1.0  T
  11   -109.2873598 -0.117754E-01  0.266E-02    0.04       1.0  T
  12   -109.2868110  0.548791E-03  0.659E-02    0.04       1.0  T
  13   -109.2868569 -0.458601E-04  0.620E-02    0.04       1.0  T
  14   -109.2873325 -0.475584E-03  0.249E-02    0.04       1.0  T
  15   -109.2874179 -0.854439E-04  0.675E-03    0.04       2.1  T
  16   -109.2874217 -0.377776E-05  0.465E-03    0.04       3.0  T
  17   -109.2874240 -0.233187E-05  0.229E-03    0.04       6.1  T
  18   -109.2874248 -0.761308E-06  0.250E-04    0.04      55.4  T
  19   -109.2874248  0.136680E-07  0.391E-04    0.04      35.5  T
     SCC iter.                  ...        0 min,  0.047 sec
     gradient                   ...        0 min,  0.017 sec
 * total energy  :  -108.1561602 Eh     change       -0.1571212E-01 Eh
   gradient norm :     0.0572401 Eh/α   predicted    -0.1467025E-01 (  -6.63%)
   displ. norm   :     0.3355166 α      lambda       -0.6710424E-02
   maximum displ.:     0.0888589 α      in ANC's #31, #24, #17, ...

........................................................................
.............................. CYCLE    4 ..............................
........................................................................

 iter      E             dE          RMSdq      gap      omega  full diag
   1   -109.2301304 -0.109230E+03  0.712E-01    0.13       0.0  T
   2   -108.8369256  0.393205E+00  0.183E+00    0.68       1.0  T
   3   -108.7160681  0.120857E+00  0.204E+00    0.21       1.0  T
   4   -109.0398945 -0.323826E+00  0.140E+00    0.32       1.0  T
   5   -109.1679679 -0.128073E+00  0.939E-01    0.09       1.0  T
   6   -109.1967088 -0.287409E-01  0.846E-01    0.22       1.0  T
   7   -109.2665988 -0.698900E-01  0.458E-01    0.09       1.0  T
   8   -109.2947507 -0.281519E-01  0.159E-01    0.04       1.0  T
   9   -109.2963025 -0.155180E-02  0.104E-01    0.04       1.0  T
  10   -109.2967443 -0.441803E-03  0.834E-02    0.04       1.0  T
  11   -109.2973226 -0.578304E-03  0.469E-02    0.04       1.0  T
  12   -109.2976230 -0.300448E-03  0.139E-02    0.04       1.0  T
  13   -109.2976061  0.169545E-04  0.178E-02    0.04       1.0  T
  14   -109.2976509 -0.448855E-04  0.152E-03    0.04       9.1  T
  15   -109.2976494  0.157326E-05  0.351E-03    0.04       4.0  T
  16   -109.2976511 -0.172727E-05  0.761E-04    0.04      18.2  T
  17   -109.2976512 -0.789924E-07  0.231E-04    0.04      60.0  T
  18   -109.2976512  0.312939E-07  0.514E-04    0.04      27.0  T
     SCC iter.                  ...        0 min,  0.044 sec
     gradient                   ...        0 min,  0.017 sec
 * total energy  :  -108.1607018 Eh     change       -0.4541575E-02 Eh
   gradient norm :     0.0403402 Eh/α   predicted    -0.3733080E-02 ( -17.80%)
   displ. norm   :     0.4426563 α      lambda       -0.5905395E-02
   maximum displ.:     0.1799042 α      in ANC's #17, #10, #18, ...

........................................................................
.............................. CYCLE    5 ..............................
........................................................................

 iter      E             dE          RMSdq      gap      omega  full diag
   1   -109.2224727 -0.109222E+03  0.792E-01    0.17       0.0  T
   2   -108.7744685  0.448004E+00  0.195E+00    0.48       1.0  T
   3   -108.7527059  0.217626E-01  0.200E+00    0.14       1.0  T
   4   -109.0240152 -0.271309E+00  0.146E+00    0.39       1.0  T
   5   -109.2455692 -0.221554E+00  0.632E-01    0.05       1.0  T
   6   -109.2012623  0.443069E-01  0.864E-01    0.30       1.0  T
   7   -109.2451202 -0.438579E-01  0.634E-01    0.13       1.0  T
   8   -109.2824595 -0.373394E-01  0.388E-01    0.03       1.0  T
   9   -109.2978173 -0.153577E-01  0.184E-01    0.05       1.0  T
  10   -109.2980111 -0.193812E-03  0.184E-01    0.04       1.0  T
  11   -109.3021373 -0.412626E-02  0.595E-02    0.04       1.0  T
  12   -109.3025732 -0.435916E-03  0.109E-02    0.04       1.3  T
  13   -109.3022936  0.279610E-03  0.453E-02    0.05       1.0  T
  14   -109.3025870 -0.293410E-03  0.199E-03    0.04       7.0  T
  15   -109.3025850  0.206617E-05  0.409E-03    0.04       3.4  T
  16   -109.3025865 -0.149606E-05  0.236E-03    0.04       5.9  T
  17   -109.3025860  0.483788E-06  0.297E-03    0.04       4.7  T
  18   -109.3025872 -0.121567E-05  0.652E-04    0.04      21.3  T
  19   -109.3025873 -0.508535E-07  0.270E-04    0.04      51.3  T
  20   -109.3025873 -0.101799E-07  0.197E-05    0.04     705.4  T
     SCC iter.                  ...        0 min,  0.049 sec
     gradient                   ...        0 min,  0.017 sec
 * total energy  :  -108.1633959 Eh     change       -0.2694083E-02 Eh
   gradient norm :     0.0331408 Eh/α   predicted    -0.3531290E-02 (  31.08%)
   displ. norm   :     0.2963147 α      lambda       -0.3011466E-02
   maximum displ.:     0.1038964 α      in ANC's #10, #12, #17, ...

........................................................................
.............................. CYCLE    6 ..............................
........................................................................

 iter      E             dE          RMSdq      gap      omega  full diag
   1   -109.2539357 -0.109254E+03  0.648E-01    0.13       0.0  T
   2   -108.8243044  0.429631E+00  0.187E+00    0.58       1.0  T
   3   -108.7512676  0.730367E-01  0.202E+00    0.14       1.0  T
   4   -109.0386756 -0.287408E+00  0.144E+00    0.23       1.0  T
   5   -109.2792714 -0.240596E+00  0.451E-01    0.04       1.0  T
   6   -109.2456106  0.336607E-01  0.669E-01    0.14       1.0  T
   7   -109.2834160 -0.378054E-01  0.417E-01    0.04       1.0  T
   8   -109.3053243 -0.219083E-01  0.130E-01    0.06       1.0  T
   9   -109.3075867 -0.226248E-02  0.386E-02    0.04       1.0  T
  10   -109.3077498 -0.163061E-03  0.153E-02    0.04       1.0  T
  11   -109.3077491  0.688083E-06  0.153E-02    0.05       1.0  T
  12   -109.3077701 -0.209877E-04  0.899E-03    0.05       1.5  T
  13   -109.3077810 -0.109229E-04  0.122E-03    0.05      11.4  T
  14   -109.3077812 -0.174622E-06  0.526E-04    0.05      26.4  T
  15   -109.3077812 -0.203826E-07  0.333E-04    0.05      41.6  T
     SCC iter.                  ...        0 min,  0.037 sec
     gradient                   ...        0 min,  0.017 sec
 * total energy  :  -108.1654718 Eh     change       -0.2075897E-02 Eh
   gradient norm :     0.0240508 Eh/α   predicted    -0.1637947E-02 ( -21.10%)
   displ. norm   :     0.3750954 α      lambda       -0.2031334E-02
   maximum displ.:     0.1480789 α      in ANC's #5, #10, #12, ...

........................................................................
.............................. CYCLE    7 ..............................
........................................................................

 iter      E             dE          RMSdq      gap      omega  full diag
   1   -109.2458133 -0.109246E+03  0.737E-01    0.17       0.0  T
   2   -108.7617974  0.484016E+00  0.199E+00    0.47       1.0  T
   3   -108.7862289 -0.244315E-01  0.198E+00    0.12       1.0  T
   4   -109.0277572 -0.241528E+00  0.149E+00    0.28       1.0  T
   5   -109.3047378 -0.276981E+00  0.253E-01    0.03       1.0  T
   6   -109.2883504  0.163874E-01  0.430E-01    0.09       1.0  T
   7   -109.2331494  0.552010E-01  0.762E-01    0.05       1.0  T
   8   -109.3125238 -0.793744E-01  0.812E-02    0.04       1.0  T
   9   -109.3124640  0.598633E-04  0.814E-02    0.04       1.0  T
  10   -109.3132234 -0.759443E-03  0.293E-02    0.05       1.0  T
  11   -109.3133195 -0.960455E-04  0.115E-02    0.05       1.2  T
  12   -109.3133321 -0.126723E-04  0.593E-03    0.05       2.3  T
  13   -109.3133365 -0.431878E-05  0.171E-03    0.05       8.1  T
  14   -109.3133368 -0.349017E-06  0.592E-04    0.05      23.4  T
  15   -109.3133368 -0.402229E-07  0.226E-04    0.05      61.4  T
     SCC iter.                  ...        0 min,  0.037 sec
     gradient                   ...        0 min,  0.017 sec
 * total energy  :  -108.1670563 Eh     change       -0.1584482E-02 Eh
   gradient norm :     0.0199788 Eh/α   predicted    -0.1158579E-02 ( -26.88%)
   displ. norm   :     0.5192144 α      lambda       -0.2055385E-02
   maximum displ.:     0.2335694 α      in ANC's #5, #10, #21, ...

........................................................................
.............................. CYCLE    8 ..............................
........................................................................

 iter      E             dE          RMSdq      gap      omega  full diag
   1   -109.2459943 -0.109246E+03  0.804E-01    0.26       0.0  T
   2   -108.6922022  0.553792E+00  0.212E+00    0.37       1.0  T
   3   -108.7629774 -0.707753E-01  0.204E+00    0.13       1.0  T
   4   -109.0379464 -0.274969E+00  0.150E+00    0.19       1.0  T
   5   -109.2857877 -0.247841E+00  0.521E-01    0.12       1.0  T
   6   -109.2262781  0.595095E-01  0.831E-01    0.05       1.0  T
   7   -109.3127409 -0.864628E-01  0.236E-01    0.07       1.0  T
   8   -109.2855376  0.272033E-01  0.510E-01    0.03       1.0  T
   9   -109.3162426 -0.307049E-01  0.168E-01    0.04       1.0  T
  10   -109.3180692 -0.182667E-02  0.118E-01    0.04       1.0  T
  11   -109.3196564 -0.158716E-02  0.435E-02    0.05       1.0  T
  12   -109.3198810 -0.224650E-03  0.118E-02    0.05       1.2  T
  13   -109.3198958 -0.147882E-04  0.566E-03    0.05       2.4  T
  14   -109.3198962 -0.359722E-06  0.532E-03    0.05       2.6  T
  15   -109.3198999 -0.368728E-05  0.104E-03    0.05      13.3  T
  16   -109.3199000 -0.119734E-06  0.380E-04    0.05      36.5  T
  17   -109.3199000 -0.908186E-08  0.269E-04    0.05      51.6  T
     SCC iter.                  ...        0 min,  0.042 sec
     gradient                   ...        0 min,  0.017 sec
 * total energy  :  -108.1687044 Eh     change       -0.1648178E-02 Eh
   gradient norm :     0.0207362 Eh/α   predicted    -0.1304749E-02 ( -20.84%)
   displ. norm   :     0.6023844 α      lambda       -0.1995051E-02
   maximum displ.:     0.3050766 α      in ANC's #5, #10, #21, ...

........................................................................
.............................. CYCLE    9 ..............................
........................................................................

 iter      E             dE          RMSdq      gap      omega  full diag
   1   -109.2616278 -0.109262E+03  0.793E-01    0.34       0.0  T
   2   -108.6652957  0.596332E+00  0.219E+00    0.32       1.0  T
   3   -108.7458554 -0.805597E-01  0.208E+00    0.14       1.0  T
   4   -109.2569904 -0.511135E+00  0.773E-01    0.04       1.0  T
   5   -109.2760563 -0.190659E-01  0.651E-01    0.19       1.0  T
   6   -109.2395090  0.365472E-01  0.817E-01    0.04       1.0  T
   7   -109.3218555 -0.823465E-01  0.199E-01    0.07       1.0  T
   8   -109.3061942  0.156614E-01  0.400E-01    0.03       1.0  T
   9   -109.3242788 -0.180847E-01  0.137E-01    0.05       1.0  T
  10   -109.3239849  0.293875E-03  0.143E-01    0.05       1.0  T
  11   -109.3255500 -0.156511E-02  0.890E-02    0.05       1.0  T
  12   -109.3259499 -0.399807E-03  0.672E-02    0.05       1.0  T
  13   -109.3264591 -0.509287E-03  0.238E-02    0.06       1.0  T
  14   -109.3265005 -0.413649E-04  0.148E-02    0.06       1.0  T
  15   -109.3265260 -0.254577E-04  0.559E-03    0.06       2.5  T
  16   -109.3265297 -0.371503E-05  0.145E-03    0.06       9.6  T
  17   -109.3265296  0.334145E-07  0.154E-03    0.06       9.0  T
  18   -109.3265299 -0.217164E-06  0.817E-04    0.06      17.0  T
  19   -109.3265299 -0.783483E-07  0.231E-04    0.06      60.0  T
     SCC iter.                  ...        0 min,  0.047 sec
     gradient                   ...        0 min,  0.017 sec
 * total energy  :  -108.1704022 Eh     change       -0.1697759E-02 Eh
   gradient norm :     0.0218937 Eh/α   predicted    -0.1359500E-02 ( -19.92%)
   displ. norm   :     0.6780272 α      lambda       -0.2377606E-02
   maximum displ.:     0.3737557 α      in ANC's #5, #21, #10, ...

........................................................................
.............................. CYCLE   10 ..............................
........................................................................

 iter      E             dE          RMSdq      gap      omega  full diag
   1   -109.2868802 -0.109287E+03  0.760E-01    0.47       0.0  T
   2   -108.6530899  0.633790E+00  0.225E+00    0.28       1.0  T
   3   -109.2847212 -0.631631E+00  0.622E-01    0.05       1.0  T
   4   -109.3057845 -0.210633E-01  0.532E-01    0.16       1.0  T
   5   -109.0797167  0.226068E+00  0.145E+00    0.10       1.0  T
   6   -109.3329336 -0.253217E+00  0.218E-01    0.09       1.0  T
   7   -109.1877449  0.145189E+00  0.110E+00    0.06       1.0  T
   8   -109.3194227 -0.131678E+00  0.386E-01    0.04       1.0  T
   9   -109.3323762 -0.129536E-01  0.205E-01    0.05       1.0  T
  10   -109.3330578 -0.681540E-03  0.189E-01    0.05       1.0  T
  11   -109.3369629 -0.390510E-02  0.624E-02    0.07       1.0  T
  12   -109.3374370 -0.474151E-03  0.102E-02    0.07       1.4  T
  13   -109.3373688  0.681942E-04  0.251E-02    0.07       1.0  T
  14   -109.3374468 -0.780190E-04  0.355E-03    0.07       3.9  T
  15   -109.3374479 -0.104939E-05  0.200E-03    0.07       6.9  T
  16   -109.3374480 -0.137673E-06  0.170E-03    0.07       8.2  T
  17   -109.3374484 -0.355943E-06  0.927E-05    0.07     149.6  T
  18   -109.3374484  0.347244E-08  0.184E-04    0.07      75.3  T
     SCC iter.                  ...        0 min,  0.044 sec
     gradient                   ...        0 min,  0.017 sec
 * total energy  :  -108.1726033 Eh     change       -0.2201118E-02 Eh
   gradient norm :     0.0271030 Eh/α   predicted    -0.1735321E-02 ( -21.16%)
   displ. norm   :     0.7855248 α      lambda       -0.3698941E-02
   maximum displ.:     0.4507031 α      in ANC's #5, #21, #10, ...

........................................................................
.............................. CYCLE   11 ..............................
........................................................................

 iter      E             dE          RMSdq      gap      omega  full diag
   1   -109.3232347 -0.109323E+03  0.710E-01    0.66       0.0  T
   2   -108.6557640  0.667471E+00  0.228E+00    0.23       1.0  T
   3   -109.3214638 -0.665700E+00  0.609E-01    0.43       1.0  T
   4   -109.3307585 -0.929473E-02  0.489E-01    0.21       1.0  T
   5   -109.3409304 -0.101719E-01  0.349E-01    0.15       1.0  T
   6   -109.3428010 -0.187057E-02  0.332E-01    0.17       1.0  T
   7   -109.3533974 -0.105964E-01  0.138E-01    0.09       1.0  T
   8   -109.3504185  0.297895E-02  0.207E-01    0.13       1.0  T
   9   -109.3282171  0.222014E-01  0.473E-01    0.05       1.0  T
  10   -109.3523420 -0.241249E-01  0.150E-01    0.11       1.0  T
  11   -109.3552555 -0.291347E-02  0.325E-02    0.10       1.0  T
  12   -109.3553742 -0.118746E-03  0.846E-03    0.09       1.6  T
  13   -109.3553821 -0.794093E-05  0.263E-03    0.09       5.3  T
  14   -109.3553816  0.503287E-06  0.297E-03    0.09       4.7  T
  15   -109.3553806  0.105319E-05  0.407E-03    0.09       3.4  T
  16   -109.3553826 -0.197661E-05  0.105E-03    0.09      13.2  T
  17   -109.3553826 -0.444560E-07  0.816E-04    0.09      17.0  T
  18   -109.3553827 -0.595703E-07  0.404E-04    0.09      34.3  T
     SCC iter.                  ...        0 min,  0.044 sec
     gradient                   ...        0 min,  0.017 sec
 * total energy  :  -108.1763677 Eh     change       -0.3764342E-02 Eh
   gradient norm :     0.0422259 Eh/α   predicted    -0.2990687E-02 ( -20.55%)
   displ. norm   :     0.7564845 α      lambda       -0.4211936E-02
   maximum displ.:     0.4369150 α      in ANC's #5, #21, #10, ...

........................................................................
.............................. CYCLE   12 ..............................
........................................................................

 iter      E             dE          RMSdq      gap      omega  full diag
   1   -109.3491761 -0.109349E+03  0.542E-01    0.47       0.0  T
   2   -108.7933324  0.555844E+00  0.208E+00    0.23       1.0  T
   3   -109.3466111 -0.553279E+00  0.464E-01    0.44       1.0  T
   4   -109.3507895 -0.417844E-02  0.390E-01    0.32       1.0  T
   5   -109.3531466 -0.235712E-02  0.325E-01    0.27       1.0  T
   6   -109.3556238 -0.247711E-02  0.284E-01    0.25       1.0  T
   7   -109.3570177 -0.139399E-02  0.260E-01    0.22       1.0  T
   8   -109.3601866 -0.316882E-02  0.196E-01    0.18       1.0  T
   9   -109.3643206 -0.413408E-02  0.501E-02    0.13       1.0  T
  10   -109.3610396  0.328103E-02  0.172E-01    0.17       1.0  T
  11   -109.3623249 -0.128530E-02  0.137E-01    0.10       1.0  T
  12   -109.3644521 -0.212720E-02  0.284E-02    0.13       1.0  T
  13   -109.3645323 -0.801952E-04  0.106E-02    0.12       1.3  T
  14   -109.3645377 -0.539416E-05  0.817E-03    0.12       1.7  T
  15   -109.3645457 -0.795237E-05  0.464E-04    0.12      29.9  T
  16   -109.3645451  0.533742E-06  0.212E-03    0.12       6.5  T
  17   -109.3645457 -0.537727E-06  0.118E-04    0.12     117.2  T
  18   -109.3645456  0.532386E-07  0.673E-04    0.12      20.6  T
     SCC iter.                  ...        0 min,  0.044 sec
     gradient                   ...        0 min,  0.017 sec
 * total energy  :  -108.1809080 Eh     change       -0.4540357E-02 Eh
   gradient norm :     0.0636066 Eh/α   predicted    -0.3311147E-02 ( -27.07%)
   displ. norm   :     0.4547573 α      lambda       -0.5910132E-02
   maximum displ.:     0.2900569 α      in ANC's #5, #6, #10, ...

........................................................................
.............................. CYCLE   13 ..............................
........................................................................

 iter      E             dE          RMSdq      gap      omega  full diag
   1   -109.3898527 -0.109390E+03  0.324E-01    0.19       0.0  T
   2   -108.9029658  0.486887E+00  0.218E+00    0.36       1.0  T
   3   -109.3878824 -0.484917E+00  0.287E-01    0.22       1.0  T
   4   -109.3923028 -0.442045E-02  0.175E-01    0.16       1.0  T
   5   -109.3934206 -0.111783E-02  0.111E-01    0.15       1.0  T
   6   -109.3942296 -0.808957E-03  0.607E-02    0.13       1.0  T
   7   -109.3945347 -0.305084E-03  0.217E-02    0.12       1.0  T
   8   -109.3945692 -0.345195E-04  0.469E-03    0.12       3.0  T
   9   -109.3945693 -0.112142E-06  0.326E-03    0.12       4.2  T
  10   -109.3945692  0.119415E-06  0.304E-03    0.12       4.6  T
  11   -109.3945699 -0.747017E-06  0.932E-04    0.12      14.9  T
  12   -109.3945700 -0.677004E-07  0.244E-04    0.12      56.9  T
     SCC iter.                  ...        0 min,  0.030 sec
     gradient                   ...        0 min,  0.017 sec
 * total energy  :  -108.1856717 Eh     change       -0.4763707E-02 Eh
   gradient norm :     0.0629492 Eh/α   predicted    -0.3566196E-02 ( -25.14%)
   displ. norm   :     0.5025715 α      lambda       -0.9074143E-02
   maximum displ.:     0.2695089 α      in ANC's #5, #21, #137, ...

........................................................................
.............................. CYCLE   14 ..............................
........................................................................

 iter      E             dE          RMSdq      gap      omega  full diag
   1   -109.4150933 -0.109415E+03  0.385E-01    0.22       0.0  T
   2   -108.9213136  0.493780E+00  0.225E+00    0.34       1.0  T
   3   -109.4135435 -0.492230E+00  0.319E-01    0.27       1.0  T
   4   -109.4164075 -0.286399E-02  0.234E-01    0.21       1.0  T
   5   -109.4176018 -0.119431E-02  0.180E-01    0.19       1.0  T
   6   -109.4191763 -0.157449E-02  0.125E-01    0.16       1.0  T
   7   -109.4201306 -0.954323E-03  0.712E-02    0.14       1.0  T
   8   -109.4205582 -0.427516E-03  0.142E-02    0.13       1.0  T
   9   -109.4205471  0.110198E-04  0.153E-02    0.13       1.0  T
  10   -109.4205649 -0.178130E-04  0.636E-03    0.13       2.2  T
  11   -109.4205680 -0.304690E-05  0.214E-03    0.13       6.5  T
  12   -109.4205684 -0.396114E-06  0.472E-04    0.13      29.4  T
  13   -109.4205684  0.264627E-07  0.636E-04    0.13      21.8  T
     SCC iter.                  ...        0 min,  0.033 sec
     gradient                   ...        0 min,  0.017 sec
 * total energy  :  -108.1908243 Eh     change       -0.5152556E-02 Eh
   gradient norm :     0.0483506 Eh/α   predicted    -0.5683035E-02 (  10.30%)
   displ. norm   :     0.4126832 α      lambda       -0.5707392E-02
   maximum displ.:     0.1470974 α      in ANC's #8, #10, #12, ...

........................................................................
.............................. CYCLE   15 ..............................
........................................................................

 iter      E             dE          RMSdq      gap      omega  full diag
   1   -109.3181284 -0.109318E+03  0.105E+00    0.06       0.0  T
   2   -109.3015386  0.165897E-01  0.139E+00    1.61       1.0  T
   3   -109.4042121 -0.102673E+00  0.676E-01    0.86       1.0  T
   4   -109.4135177 -0.930559E-02  0.521E-01    0.61       1.0  T
   5   -109.4202284 -0.671074E-02  0.416E-01    0.45       1.0  T
   6   -109.4296610 -0.943257E-02  0.216E-01    0.19       1.0  T
   7   -109.4087826  0.208784E-01  0.493E-01    0.07       1.0  T
   8   -109.4277794 -0.189968E-01  0.250E-01    0.22       1.0  T
   9   -109.4299998 -0.222044E-02  0.190E-01    0.19       1.0  T
  10   -109.4333356 -0.333575E-02  0.406E-02    0.14       1.0  T
  11   -109.4331126  0.222992E-03  0.620E-02    0.14       1.0  T
  12   -109.4334828 -0.370183E-03  0.852E-03    0.13       1.6  T
  13   -109.4334895 -0.676361E-05  0.205E-03    0.13       6.8  T
  14   -109.4334880  0.152709E-05  0.440E-03    0.13       3.2  T
  15   -109.4334892 -0.116895E-05  0.272E-03    0.13       5.1  T
  16   -109.4334899 -0.725545E-06  0.106E-04    0.13     131.4  T
  17   -109.4334899  0.386338E-08  0.217E-04    0.13      63.9  T
     SCC iter.                  ...        0 min,  0.042 sec
     gradient                   ...        0 min,  0.017 sec
 * total energy  :  -108.1928889 Eh     change       -0.2064611E-02 Eh
   gradient norm :     0.0637697 Eh/α   predicted    -0.3339711E-02 (  61.76%)
   displ. norm   :     0.4340803 α      lambda       -0.6408020E-02
   maximum displ.:     0.2286353 α      in ANC's #5, #6, #21, ...

........................................................................
.............................. CYCLE   16 ..............................
........................................................................

 iter      E             dE          RMSdq      gap      omega  full diag
   1   -109.3966070 -0.109397E+03  0.272E-01    0.23       0.0  T
   2   -108.9165339  0.480073E+00  0.220E+00    0.31       1.0  T
   3   -109.3978318 -0.481298E+00  0.221E-01    0.21       1.0  T
   4   -109.3988880 -0.105623E-02  0.172E-01    0.19       1.0  T
   5   -109.4009119 -0.202389E-02  0.784E-02    0.15       1.0  T
   6   -109.4012407 -0.328790E-03  0.449E-02    0.15       1.0  T
   7   -109.4013115 -0.707824E-04  0.323E-02    0.14       1.0  T
   8   -109.4013956 -0.840709E-04  0.793E-03    0.14       1.7  T
   9   -109.4014002 -0.458009E-05  0.140E-03    0.13       9.9  T
  10   -109.4014002 -0.285535E-07  0.725E-04    0.13      19.1  T
  11   -109.4014002  0.428422E-08  0.531E-04    0.13      26.1  T
     SCC iter.                  ...        0 min,  0.027 sec
     gradient                   ...        0 min,  0.017 sec
 * total energy  :  -108.1951165 Eh     change       -0.2227593E-02 Eh
   gradient norm :     0.0553636 Eh/α   predicted    -0.3807732E-02 (  70.93%)
   displ. norm   :     0.4087837 α      lambda       -0.5396078E-02
   maximum displ.:     0.1764079 α      in ANC's #3, #4, #10, ...

........................................................................
.............................. CYCLE   17 ..............................
........................................................................

 iter      E             dE          RMSdq      gap      omega  full diag
   1   -109.4136147 -0.109414E+03  0.310E-01    0.23       0.0  T
   2   -108.9357650  0.477850E+00  0.221E+00    0.26       1.0  T
   3   -109.4152919 -0.479527E+00  0.199E-01    0.23       1.0  T
   4   -109.4183508 -0.305886E-02  0.757E-02    0.16       1.0  T
   5   -109.4183347  0.160745E-04  0.449E-02    0.15       1.0  T
   6   -109.4183336  0.117266E-05  0.335E-02    0.14       1.0  T
   7   -109.4184197 -0.861105E-04  0.125E-02    0.14       1.1  T
   8   -109.4184311 -0.114250E-04  0.478E-03    0.15       2.9  T
   9   -109.4184324 -0.128238E-05  0.256E-03    0.15       5.4  T
  10   -109.4184328 -0.387217E-06  0.117E-03    0.15      11.9  T
  11   -109.4184328 -0.838045E-07  0.466E-04    0.15      29.7  T
  12   -109.4184329 -0.144632E-07  0.157E-04    0.15      88.5  T
     SCC iter.                  ...        0 min,  0.030 sec
     gradient                   ...        0 min,  0.017 sec
 * total energy  :  -108.1955442 Eh     change       -0.4276750E-03 Eh
   gradient norm :     0.0965286 Eh/α   predicted    -0.3148903E-02 ( 636.28%)
   displ. norm   :     0.2536413 α      lambda       -0.5407189E-02
   maximum displ.:     0.1055472 α      in ANC's #5, #3, #21, ...

........................................................................
.............................. CYCLE   18 ..............................
........................................................................

 iter      E             dE          RMSdq      gap      omega  full diag
   1   -109.3636239 -0.109364E+03  0.761E-01    0.06       0.0  T
   2   -109.3506569  0.129670E-01  0.989E-01    1.17       1.0  T
   3   -109.4036491 -0.529922E-01  0.487E-01    0.59       1.0  T
   4   -109.4089675 -0.531846E-02  0.367E-01    0.44       1.0  T
   5   -109.4128082 -0.384061E-02  0.291E-01    0.34       1.0  T
   6   -109.4189092 -0.610105E-02  0.936E-02    0.16       1.0  T
   7   -109.4186265  0.282670E-03  0.982E-02    0.17       1.0  T
   8   -109.4123249  0.630168E-02  0.267E-01    0.09       1.0  T
   9   -109.4194512 -0.712630E-02  0.130E-02    0.14       1.1  T
  10   -109.4194309  0.203085E-04  0.176E-02    0.14       1.0  T
  11   -109.4194430 -0.121906E-04  0.137E-02    0.14       1.0  T
  12   -109.4194601 -0.170728E-04  0.402E-03    0.14       3.5  T
  13   -109.4194597  0.420467E-06  0.442E-03    0.14       3.1  T
  14   -109.4194612 -0.153194E-05  0.191E-03    0.14       7.2  T
  15   -109.4194616 -0.327084E-06  0.625E-04    0.14      22.2  T
  16   -109.4194616 -0.383309E-07  0.351E-05    0.14     395.4  T
     SCC iter.                  ...        0 min,  0.039 sec
     gradient                   ...        0 min,  0.017 sec
 * total energy  :  -108.1972933 Eh     change       -0.1749165E-02 Eh
   gradient norm :     0.0445432 Eh/α   predicted    -0.2877537E-02 (  64.51%)
   displ. norm   :     0.3516750 α      lambda       -0.3141793E-02
   maximum displ.:     0.1464375 α      in ANC's #21, #12, #11, ...

........................................................................
.............................. CYCLE   19 ..............................
........................................................................

 iter      E             dE          RMSdq      gap      omega  full diag
   1   -109.4265011 -0.109427E+03  0.149E-01    0.15       0.0  T
   2   -109.4266621 -0.161035E-03  0.914E-02    0.15       1.0  T
   3   -109.4177310  0.893112E-02  0.299E-01    0.10       1.0  T
   4   -109.4264124 -0.868134E-02  0.784E-02    0.17       1.0  T
   5   -109.4267463 -0.333932E-03  0.347E-02    0.16       1.0  T
   6   -109.4268363 -0.899826E-04  0.167E-02    0.15       1.0  T
   7   -109.4268598 -0.235385E-04  0.546E-03    0.15       2.5  T
   8   -109.4268619 -0.206917E-05  0.155E-03    0.15       8.9  T
   9   -109.4268619 -0.298832E-07  0.860E-04    0.15      16.1  T
  10   -109.4268620 -0.423993E-07  0.350E-04    0.15      39.7  T
     SCC iter.                  ...        0 min,  0.025 sec
     gradient                   ...        0 min,  0.017 sec
 * total energy  :  -108.1974548 Eh     change       -0.1614886E-03 Eh
   gradient norm :     0.0500889 Eh/α   predicted    -0.1765182E-02 ( 993.07%)
   displ. norm   :     0.3986338 α      lambda       -0.3086515E-02
   maximum displ.:     0.2312773 α      in ANC's #5, #21, #3, ...

........................................................................
.............................. CYCLE   20 ..............................
........................................................................

 iter      E             dE          RMSdq      gap      omega  full diag
   1   -109.4092212 -0.109409E+03  0.176E-01    0.17       0.0  T
   2   -109.2241403  0.185081E+00  0.134E+00    0.06       1.0  T
   3   -109.4045945 -0.180454E+00  0.251E-01    0.26       1.0  T
   4   -109.4069369 -0.234238E-02  0.195E-01    0.22       1.0  T
   5   -109.4076428 -0.705976E-03  0.162E-01    0.20       1.0  T
   6   -109.4086776 -0.103472E-02  0.122E-01    0.18       1.0  T
   7   -109.4093032 -0.625644E-03  0.910E-02    0.17       1.0  T
   8   -109.4096662 -0.363031E-03  0.665E-02    0.16       1.0  T
   9   -109.4100580 -0.391777E-03  0.152E-02    0.14       1.0  T
  10   -109.4100780 -0.199799E-04  0.254E-03    0.14       5.5  T
  11   -109.4100785 -0.535562E-06  0.652E-04    0.14      21.3  T
  12   -109.4100785 -0.188659E-07  0.228E-04    0.14      60.7  T
     SCC iter.                  ...        0 min,  0.029 sec
     gradient                   ...        0 min,  0.017 sec
 * total energy  :  -108.1981997 Eh     change       -0.7449149E-03 Eh
   gradient norm :     0.0400312 Eh/α   predicted    -0.1788502E-02 ( 140.09%)
   displ. norm   :     0.3359032 α      lambda       -0.2414938E-02
   maximum displ.:     0.1344122 α      in ANC's #5, #3, #10, ...
 * RMSD in coord.:     0.7412311 α      energy gain  -0.9618831E-01 Eh

generating ANC from exact Hessian ...
Using Lindh-Hessian (1995)
 Shifting diagonal of input Hessian by    9.9549159809080266E-003
 Lowest  eigenvalues of input Hessian
    0.000000    0.000000    0.000000    0.000000    0.000000    0.000000
    0.010000    0.010104    0.010123    0.010249    0.010322    0.010587
    0.010779    0.011294    0.011577    0.012000    0.012448    0.012860
 Highest eigenvalues
    2.244472    2.404518    2.515489    2.548540    3.148422    3.188680


........................................................................
.............................. CYCLE   21 ..............................
........................................................................

 iter      E             dE          RMSdq      gap      omega  full diag
   1   -109.4100303 -0.109410E+03  0.330E-01    0.10       0.0  T
   2   -109.3968915  0.131388E-01  0.496E-01    0.55       1.0  T
   3   -109.4131708 -0.162792E-01  0.240E-01    0.27       1.0  T
   4   -109.4177010 -0.453024E-02  0.685E-02    0.15       1.0  T
   5   -109.4176607  0.403431E-04  0.448E-02    0.15       1.0  T
   6   -109.4166309  0.102975E-02  0.107E-01    0.12       1.0  T
   7   -109.4176587 -0.102780E-02  0.325E-02    0.16       1.0  T
   8   -109.4177630 -0.104293E-03  0.888E-03    0.15       1.6  T
   9   -109.4177421  0.208874E-04  0.164E-02    0.15       1.0  T
  10   -109.4177654 -0.232529E-04  0.585E-03    0.15       2.4  T
  11   -109.4177685 -0.314747E-05  0.142E-03    0.15       9.8  T
  12   -109.4177687 -0.150336E-06  0.635E-04    0.15      21.8  T
  13   -109.4177687 -0.366830E-07  0.154E-04    0.15      90.3  T
     SCC iter.                  ...        0 min,  0.033 sec
     gradient                   ...        0 min,  0.018 sec
 * total energy  :  -108.1984538 Eh     change       -0.2540803E-03 Eh
   gradient norm :     0.0517307 Eh/α   predicted     0.0000000E+00 (-100.00%)
   displ. norm   :     0.1539918 α      lambda       -0.1524506E-02
   maximum displ.:     0.0808130 α      in ANC's #13, #7, #19, ...

........................................................................
.............................. CYCLE   22 ..............................
........................................................................

 iter      E             dE          RMSdq      gap      omega  full diag
   1   -109.4149116 -0.109415E+03  0.112E-01    0.16       0.0  T
   2   -109.3500579  0.648537E-01  0.793E-01    0.06       1.0  T
   3   -109.4137293 -0.636714E-01  0.136E-01    0.19       1.0  T
   4   -109.4150869 -0.135766E-02  0.662E-02    0.16       1.0  T
   5   -109.4151300 -0.430240E-04  0.518E-02    0.16       1.0  T
   6   -109.4153467 -0.216717E-03  0.222E-02    0.15       1.0  T
   7   -109.4153816 -0.349435E-04  0.117E-02    0.15       1.2  T
   8   -109.4153913 -0.966352E-05  0.540E-03    0.15       2.6  T
   9   -109.4153938 -0.254468E-05  0.139E-03    0.15      10.0  T
  10   -109.4153940 -0.147977E-06  0.274E-04    0.15      50.6  T
  11   -109.4153940  0.190221E-08  0.200E-04    0.15      69.4  T
     SCC iter.                  ...        0 min,  0.083 sec
     gradient                   ...        0 min,  0.060 sec
 * total energy  :  -108.1991562 Eh     change       -0.7023768E-03 Eh
   gradient norm :     0.0107609 Eh/α   predicted    -0.7842550E-03 (  11.66%)
   displ. norm   :     0.3429715 α      lambda       -0.2109731E-02
   maximum displ.:     0.1500029 α      in ANC's #18, #11, #13, ...

........................................................................
.............................. CYCLE   23 ..............................
........................................................................

 iter      E             dE          RMSdq      gap      omega  full diag
   1   -109.4046934 -0.109405E+03  0.263E-01    0.12       0.0  T
   2   -109.3933961  0.112973E-01  0.412E-01    0.47       1.0  T
   3   -109.4070568 -0.136607E-01  0.145E-01    0.18       1.0  T
   4   -109.3971353  0.992142E-02  0.325E-01    0.09       1.0  T
   5   -109.4056211 -0.848577E-02  0.156E-01    0.20       1.0  T
   6   -109.4075687 -0.194762E-02  0.516E-02    0.16       1.0  T
   7   -109.4077472 -0.178436E-03  0.268E-02    0.15       1.0  T
   8   -109.4078115 -0.643519E-04  0.484E-03    0.15       2.9  T
   9   -109.4078121 -0.565487E-06  0.265E-03    0.15       5.2  T
  10   -109.4078126 -0.487267E-06  0.680E-04    0.15      20.4  T
  11   -109.4078125  0.104836E-06  0.113E-03    0.15      12.2  T
  12   -109.4078126 -0.846696E-07  0.592E-04    0.15      23.4  T
     SCC iter.                  ...        0 min,  0.137 sec
     gradient                   ...        0 min,  0.058 sec
 * total energy  :  -108.1969168 Eh     change        0.2239432E-02 Eh
   gradient norm :     0.0705443 Eh/α   predicted    -0.1178974E-02 (-152.65%)
   displ. norm   :     0.1962121 α      lambda       -0.5113645E-02
   maximum displ.:     0.1032257 α      in ANC's #13, #18, #7, ...

........................................................................
.............................. CYCLE   24 ..............................
........................................................................

 iter      E             dE          RMSdq      gap      omega  full diag
   1   -109.4164776 -0.109416E+03  0.189E-01    0.18       0.0  T
   2   -109.0695584  0.346919E+00  0.184E+00    0.13       1.0  T
   3   -109.4174833 -0.347925E+00  0.120E-01    0.17       1.0  T
   4   -109.4176218 -0.138486E-03  0.821E-02    0.17       1.0  T
   5   -109.4179794 -0.357611E-03  0.335E-02    0.16       1.0  T
   6   -109.4180071 -0.277280E-04  0.257E-02    0.16       1.0  T
   7   -109.4180198 -0.127311E-04  0.216E-02    0.15       1.0  T
   8   -109.4180493 -0.294284E-04  0.131E-02    0.15       1.1  T
   9   -109.4180575 -0.827905E-05  0.885E-03    0.15       1.6  T
  10   -109.4180628 -0.525611E-05  0.471E-03    0.15       2.9  T
  11   -109.4180647 -0.194014E-05  0.135E-03    0.15      10.3  T
  12   -109.4180649 -0.148945E-06  0.159E-04    0.15      87.1  T
  13   -109.4180649 -0.470905E-09  0.564E-05    0.15     245.9  T
     SCC iter.                  ...        0 min,  0.123 sec
     gradient                   ...        0 min,  0.032 sec
 * total energy  :  -108.1995950 Eh     change       -0.2678235E-02 Eh
   gradient norm :     0.0143877 Eh/α   predicted    -0.2655260E-02 (  -0.86%)
   displ. norm   :     0.1933962 α      lambda       -0.6850035E-03
   maximum displ.:     0.0997130 α      in ANC's #6, #9, #13, ...

........................................................................
.............................. CYCLE   25 ..............................
........................................................................

 iter      E             dE          RMSdq      gap      omega  full diag
   1   -109.4148237 -0.109415E+03  0.138E-01    0.13       0.0  T
   2   -109.4098500  0.497374E-02  0.244E-01    0.27       1.0  T
   3   -109.4104960 -0.646064E-03  0.220E-01    0.11       1.0  T
   4   -109.4136443 -0.314827E-02  0.131E-01    0.19       1.0  T
   5   -109.4150780 -0.143369E-02  0.451E-02    0.16       1.0  T
   6   -109.4152761 -0.198111E-03  0.676E-03    0.15       2.1  T
   7   -109.4152763 -0.158554E-06  0.553E-03    0.15       2.5  T
   8   -109.4152786 -0.237238E-05  0.134E-03    0.15      10.3  T
   9   -109.4152787 -0.792043E-07  0.368E-04    0.15      37.7  T
  10   -109.4152787 -0.322051E-08  0.180E-04    0.15      77.2  T
     SCC iter.                  ...        0 min,  0.091 sec
     gradient                   ...        0 min,  0.115 sec
 * total energy  :  -108.1991668 Eh     change        0.4281643E-03 Eh
   gradient norm :     0.0212426 Eh/α   predicted    -0.3553129E-03 (-182.99%)
   displ. norm   :     0.1572434 α      lambda       -0.1454749E-02
   maximum displ.:     0.0835923 α      in ANC's #4, #7, #9, ...

........................................................................
.............................. CYCLE   26 ..............................
........................................................................

 iter      E             dE          RMSdq      gap      omega  full diag
   1   -109.4173361 -0.109417E+03  0.107E-01    0.16       0.0  T
   2   -109.3918995  0.254366E-01  0.497E-01    0.08       1.0  T
   3   -109.4163902 -0.244907E-01  0.118E-01    0.18       1.0  T
   4   -109.4173364 -0.946225E-03  0.570E-02    0.16       1.0  T
   5   -109.4172854  0.509599E-04  0.501E-02    0.16       1.0  T
   6   -109.4174777 -0.192267E-03  0.248E-02    0.15       1.0  T
   7   -109.4175248 -0.471086E-04  0.115E-02    0.15       1.2  T
   8   -109.4175363 -0.114910E-04  0.260E-03    0.15       5.3  T
   9   -109.4175369 -0.550847E-06  0.658E-04    0.15      21.1  T
  10   -109.4175369 -0.788930E-09  0.476E-04    0.15      29.1  T
     SCC iter.                  ...        0 min,  0.141 sec
     gradient                   ...        0 min,  0.082 sec
 * total energy  :  -108.1999034 Eh     change       -0.7366144E-03 Eh
   gradient norm :     0.0071046 Eh/α   predicted    -0.7453616E-03 (   1.19%)
   displ. norm   :     0.1299903 α      lambda       -0.2344378E-03
   maximum displ.:     0.0511129 α      in ANC's #7, #6, #3, ...

........................................................................
.............................. CYCLE   27 ..............................
........................................................................

 iter      E             dE          RMSdq      gap      omega  full diag
   1   -109.4176690 -0.109418E+03  0.455E-02    0.15       0.0  T
   2   -109.4166097  0.105931E-02  0.103E-01    0.13       1.0  T
   3   -109.4171108 -0.501091E-03  0.780E-02    0.17       1.0  T
   4   -109.4176792 -0.568382E-03  0.131E-02    0.15       1.1  T
   5   -109.4176821 -0.291074E-05  0.733E-03    0.15       1.9  T
   6   -109.4176862 -0.414587E-05  0.237E-03    0.15       5.8  T
   7   -109.4176864 -0.201803E-06  0.143E-03    0.15       9.7  T
   8   -109.4176865 -0.128156E-06  0.642E-04    0.15      21.6  T
   9   -109.4176866 -0.185706E-07  0.412E-04    0.15      33.7  T
     SCC iter.                  ...        0 min,  0.175 sec
     gradient                   ...        0 min,  0.123 sec
 * total energy  :  -108.2000720 Eh     change       -0.1685961E-03 Eh
   gradient norm :     0.0069148 Eh/α   predicted    -0.1192003E-03 ( -29.30%)
   displ. norm   :     0.3932182 α      lambda       -0.4978447E-03
   maximum displ.:     0.1665946 α      in ANC's #7, #6, #18, ...

........................................................................
.............................. CYCLE   28 ..............................
........................................................................

 iter      E             dE          RMSdq      gap      omega  full diag
   1   -109.4157520 -0.109416E+03  0.123E-01    0.15       0.0  T
   2   -109.4147071  0.104489E-02  0.120E-01    0.13       1.0  T
   3   -109.4112547  0.345242E-02  0.218E-01    0.26       1.0  T
   4   -109.4152691 -0.401442E-02  0.785E-02    0.17       1.0  T
   5   -109.4157197 -0.450621E-03  0.301E-02    0.16       1.0  T
   6   -109.4157918 -0.720795E-04  0.120E-02    0.15       1.2  T
   7   -109.4158045 -0.126455E-04  0.267E-03    0.15       5.2  T
   8   -109.4158044  0.646388E-08  0.165E-03    0.15       8.4  T
   9   -109.4158046 -0.157511E-06  0.477E-04    0.15      29.0  T
  10   -109.4158046  0.215960E-07  0.556E-04    0.15      24.9  T
     SCC iter.                  ...        0 min,  0.071 sec
     gradient                   ...        0 min,  0.018 sec
 * total energy  :  -108.2003915 Eh     change       -0.3194748E-03 Eh
   gradient norm :     0.0105196 Eh/α   predicted    -0.2874143E-03 ( -10.04%)
   displ. norm   :     0.2591542 α      lambda       -0.2486806E-03
   maximum displ.:     0.1206551 α      in ANC's #6, #7, #3, ...

........................................................................
.............................. CYCLE   29 ..............................
........................................................................

 iter      E             dE          RMSdq      gap      omega  full diag
   1   -109.4166768 -0.109417E+03  0.747E-02    0.15       0.0  T
   2   -109.4161088  0.568021E-03  0.831E-02    0.13       1.0  T
   3   -109.4143864  0.172239E-02  0.154E-01    0.21       1.0  T
   4   -109.4165713 -0.218490E-02  0.396E-02    0.16       1.0  T
   5   -109.4166798 -0.108423E-03  0.151E-02    0.15       1.0  T
   6   -109.4166993 -0.195352E-04  0.462E-03    0.15       3.0  T
   7   -109.4166995 -0.245739E-06  0.322E-03    0.15       4.3  T
   8   -109.4167005 -0.934588E-06  0.739E-04    0.15      18.8  T
   9   -109.4167005 -0.207149E-07  0.390E-04    0.15      35.6  T
     SCC iter.                  ...        0 min,  0.025 sec
     gradient                   ...        0 min,  0.018 sec
 * total energy  :  -108.2005581 Eh     change       -0.1666159E-03 Eh
   gradient norm :     0.0066116 Eh/α   predicted    -0.1326943E-03 ( -20.36%)
   displ. norm   :     0.2057512 α      lambda       -0.1958507E-03
   maximum displ.:     0.1069121 α      in ANC's #6, #3, #7, ...

........................................................................
.............................. CYCLE   30 ..............................
........................................................................

 iter      E             dE          RMSdq      gap      omega  full diag
   1   -109.4206785 -0.109421E+03  0.513E-02    0.15       0.0  T
   2   -109.4181942  0.248433E-02  0.157E-01    0.11       1.0  T
   3   -109.4203634 -0.216925E-02  0.629E-02    0.16       1.0  T
   4   -109.4206755 -0.312087E-03  0.208E-02    0.15       1.0  T
   5   -109.4206992 -0.236665E-04  0.102E-02    0.15       1.4  T
   6   -109.4207088 -0.962683E-05  0.238E-03    0.14       5.8  T
   7   -109.4207089 -0.654378E-07  0.134E-03    0.14      10.4  T
   8   -109.4207090 -0.122688E-06  0.524E-04    0.14      26.4  T
   9   -109.4207090 -0.204955E-07  0.176E-04    0.14      79.0  T
     SCC iter.                  ...        0 min,  0.025 sec
     gradient                   ...        0 min,  0.018 sec
 * total energy  :  -108.2006900 Eh     change       -0.1318905E-03 Eh
   gradient norm :     0.0050180 Eh/α   predicted    -0.1020770E-03 ( -22.60%)
   displ. norm   :     0.3099061 α      lambda       -0.1589082E-03
   maximum displ.:     0.1564917 α      in ANC's #6, #3, #7, ...

........................................................................
.............................. CYCLE   31 ..............................
........................................................................

 iter      E             dE          RMSdq      gap      omega  full diag
   1   -109.4207491 -0.109421E+03  0.761E-02    0.15       0.0  T
   2   -109.4050942  0.156549E-01  0.390E-01    0.08       1.0  T
   3   -109.4202868 -0.151926E-01  0.829E-02    0.16       1.0  T
   4   -109.4207212 -0.434384E-03  0.388E-02    0.15       1.0  T
   5   -109.4207829 -0.617090E-04  0.265E-02    0.15       1.0  T
   6   -109.4208346 -0.517435E-04  0.131E-02    0.14       1.1  T
   7   -109.4208495 -0.148445E-04  0.313E-03    0.14       4.4  T
   8   -109.4208501 -0.642862E-06  0.126E-03    0.14      11.0  T
   9   -109.4208501 -0.301756E-08  0.107E-03    0.14      12.9  T
  10   -109.4208502 -0.442396E-07  0.763E-04    0.14      18.2  T
  11   -109.4208502 -0.467148E-07  0.326E-04    0.14      42.5  T
     SCC iter.                  ...        0 min,  0.029 sec
     gradient                   ...        0 min,  0.018 sec
 * total energy  :  -108.2008236 Eh     change       -0.1335658E-03 Eh
   gradient norm :     0.0065793 Eh/α   predicted    -0.8708971E-04 ( -34.80%)
   displ. norm   :     0.5512773 α      lambda       -0.3144955E-03
   maximum displ.:     0.2805054 α      in ANC's #6, #3, #1, ...

........................................................................
.............................. CYCLE   32 ..............................
........................................................................

 iter      E             dE          RMSdq      gap      omega  full diag
   1   -109.4205257 -0.109421E+03  0.140E-01    0.15       0.0  T
   2   -109.1941875  0.226338E+00  0.150E+00    0.06       1.0  T
   3   -109.4201360 -0.225949E+00  0.117E-01    0.16       1.0  T
   4   -109.4207722 -0.636116E-03  0.663E-02    0.15       1.0  T
   5   -109.4208465 -0.743695E-04  0.553E-02    0.15       1.0  T
   6   -109.4210197 -0.173146E-03  0.360E-02    0.14       1.0  T
   7   -109.4210893 -0.696040E-04  0.230E-02    0.14       1.0  T
   8   -109.4211225 -0.332614E-04  0.133E-02    0.13       1.0  T
   9   -109.4211360 -0.134426E-04  0.575E-03    0.13       2.4  T
  10   -109.4211387 -0.267842E-05  0.200E-03    0.13       6.9  T
  11   -109.4211390 -0.301260E-06  0.891E-04    0.13      15.6  T
  12   -109.4211390 -0.695882E-07  0.247E-04    0.13      56.2  T
     SCC iter.                  ...        0 min,  0.032 sec
     gradient                   ...        0 min,  0.018 sec
 * total energy  :  -108.2010889 Eh     change       -0.2653513E-03 Eh
   gradient norm :     0.0085985 Eh/α   predicted    -0.2050413E-03 ( -22.73%)
   displ. norm   :     0.5923338 α      lambda       -0.3655504E-03
   maximum displ.:     0.2961750 α      in ANC's #6, #3, #1, ...

........................................................................
.............................. CYCLE   33 ..............................
........................................................................

 iter      E             dE          RMSdq      gap      omega  full diag
   1   -109.4188611 -0.109419E+03  0.161E-01    0.16       0.0  T
   2   -109.0397736  0.379088E+00  0.195E+00    0.11       1.0  T
   3   -109.4189061 -0.379133E+00  0.119E-01    0.16       1.0  T
   4   -109.4196370 -0.730958E-03  0.603E-02    0.14       1.0  T
   5   -109.4197432 -0.106144E-03  0.446E-02    0.14       1.0  T
   6   -109.4198623 -0.119183E-03  0.273E-02    0.13       1.0  T
   7   -109.4199006 -0.382141E-04  0.177E-02    0.13       1.0  T
   8   -109.4199200 -0.194903E-04  0.102E-02    0.13       1.4  T
   9   -109.4199263 -0.630037E-05  0.608E-03    0.13       2.3  T
  10   -109.4199294 -0.306131E-05  0.182E-03    0.12       7.6  T
  11   -109.4199297 -0.262693E-06  0.750E-04    0.12      18.5  T
  12   -109.4199297 -0.408206E-07  0.348E-04    0.12      39.8  T
     SCC iter.                  ...        0 min,  0.031 sec
     gradient                   ...        0 min,  0.018 sec
 * total energy  :  -108.2014075 Eh     change       -0.3186099E-03 Eh
   gradient norm :     0.0093514 Eh/α   predicted    -0.2469080E-03 ( -22.50%)
   displ. norm   :     0.5991396 α      lambda       -0.4590682E-03
   maximum displ.:     0.2849090 α      in ANC's #6, #3, #1, ...

........................................................................
.............................. CYCLE   34 ..............................
........................................................................

 iter      E             dE          RMSdq      gap      omega  full diag
   1   -109.4177591 -0.109418E+03  0.182E-01    0.17       0.0  T
   2   -108.9536430  0.464116E+00  0.218E+00    0.17       1.0  T
   3   -109.4186158 -0.464973E+00  0.113E-01    0.15       1.0  T
   4   -109.4193514 -0.735638E-03  0.422E-02    0.13       1.0  T
   5   -109.4194478 -0.963684E-04  0.179E-02    0.12       1.0  T
   6   -109.4194608 -0.130201E-04  0.106E-02    0.12       1.3  T
   7   -109.4194652 -0.437883E-05  0.672E-03    0.12       2.1  T
   8   -109.4194675 -0.234385E-05  0.395E-03    0.12       3.5  T
   9   -109.4194683 -0.765080E-06  0.262E-03    0.12       5.3  T
  10   -109.4194687 -0.452101E-06  0.133E-03    0.12      10.4  T
  11   -109.4194689 -0.135971E-06  0.514E-04    0.12      27.0  T
  12   -109.4194689 -0.206094E-07  0.210E-04    0.12      65.9  T
     SCC iter.                  ...        0 min,  0.030 sec
     gradient                   ...        0 min,  0.017 sec
 * total energy  :  -108.2017981 Eh     change       -0.3905232E-03 Eh
   gradient norm :     0.0106900 Eh/α   predicted    -0.3119312E-03 ( -20.12%)
   displ. norm   :     0.6789933 α      lambda       -0.5678140E-03
   maximum displ.:     0.3223543 α      in ANC's #3, #6, #1, ...

........................................................................
.............................. CYCLE   35 ..............................
........................................................................

 iter      E             dE          RMSdq      gap      omega  full diag
   1   -109.4142816 -0.109414E+03  0.195E-01    0.17       0.0  T
   2   -108.9456474  0.468634E+00  0.220E+00    0.18       1.0  T
   3   -109.4149402 -0.469293E+00  0.129E-01    0.16       1.0  T
   4   -109.4159010 -0.960798E-03  0.491E-02    0.14       1.0  T
   5   -109.4160330 -0.132042E-03  0.237E-02    0.13       1.0  T
   6   -109.4160536 -0.206421E-04  0.138E-02    0.13       1.0  T
   7   -109.4160663 -0.126792E-04  0.618E-03    0.13       2.2  T
   8   -109.4160682 -0.190918E-05  0.357E-03    0.13       3.9  T
   9   -109.4160686 -0.409961E-06  0.257E-03    0.13       5.4  T
  10   -109.4160691 -0.421538E-06  0.134E-03    0.13      10.4  T
  11   -109.4160692 -0.118387E-06  0.614E-04    0.13      22.6  T
  12   -109.4160692 -0.281780E-07  0.263E-04    0.13      52.7  T
     SCC iter.                  ...        0 min,  0.030 sec
     gradient                   ...        0 min,  0.017 sec
 * total energy  :  -108.2022886 Eh     change       -0.4905789E-03 Eh
   gradient norm :     0.0136808 Eh/α   predicted    -0.4148008E-03 ( -15.45%)
   displ. norm   :     0.5965129 α      lambda       -0.9618789E-03
   maximum displ.:     0.2528294 α      in ANC's #3, #1, #11, ...

........................................................................
.............................. CYCLE   36 ..............................
........................................................................

 iter      E             dE          RMSdq      gap      omega  full diag
   1   -109.4190202 -0.109419E+03  0.225E-01    0.22       0.0  T
   2   -108.9196806  0.499340E+00  0.229E+00    0.24       1.0  T
   3   -109.4214828 -0.501802E+00  0.108E-01    0.16       1.0  T
   4   -109.4219072 -0.424437E-03  0.474E-02    0.14       1.0  T
   5   -109.4217482  0.159091E-03  0.512E-02    0.13       1.0  T
   6   -109.4218765 -0.128350E-03  0.313E-02    0.13       1.0  T
   7   -109.4219605 -0.839480E-04  0.102E-02    0.14       1.4  T
   8   -109.4219675 -0.708655E-05  0.440E-03    0.14       3.2  T
   9   -109.4219688 -0.124548E-05  0.185E-03    0.14       7.5  T
  10   -109.4219690 -0.240452E-06  0.506E-04    0.14      27.4  T
  11   -109.4219690  0.510414E-07  0.790E-04    0.14      17.6  T
     SCC iter.                  ...        0 min,  0.028 sec
     gradient                   ...        0 min,  0.017 sec
 * total energy  :  -108.2027669 Eh     change       -0.4782413E-03 Eh
   gradient norm :     0.0177451 Eh/α   predicted    -0.6520708E-03 (  36.35%)
   displ. norm   :     0.6103765 α      lambda       -0.9241773E-03
   maximum displ.:     0.2852476 α      in ANC's #3, #6, #1, ...

........................................................................
.............................. CYCLE   37 ..............................
........................................................................

 iter      E             dE          RMSdq      gap      omega  full diag
   1   -109.4154876 -0.109415E+03  0.138E-01    0.17       0.0  T
   2   -109.3952196  0.202680E-01  0.462E-01    0.08       1.0  T
   3   -109.4137129 -0.184933E-01  0.160E-01    0.21       1.0  T
   4   -109.4148825 -0.116953E-02  0.967E-02    0.19       1.0  T
   5   -109.4152976 -0.415116E-03  0.644E-02    0.17       1.0  T
   6   -109.4155247 -0.227140E-03  0.388E-02    0.17       1.0  T
   7   -109.4156582 -0.133498E-03  0.385E-03    0.15       3.6  T
   8   -109.4156576  0.662833E-06  0.348E-03    0.15       4.0  T
   9   -109.4156585 -0.898117E-06  0.140E-03    0.15       9.9  T
  10   -109.4156584  0.108348E-06  0.168E-03    0.15       8.2  T
  11   -109.4156586 -0.238658E-06  0.439E-04    0.15      31.6  T
  12   -109.4156586 -0.151075E-07  0.125E-04    0.15     110.6  T
     SCC iter.                  ...        0 min,  0.030 sec
     gradient                   ...        0 min,  0.017 sec
 * total energy  :  -108.2034520 Eh     change       -0.6851481E-03 Eh
   gradient norm :     0.0151699 Eh/α   predicted    -0.6342467E-03 (  -7.43%)
   displ. norm   :     0.4770066 α      lambda       -0.7568106E-03
   maximum displ.:     0.2163941 α      in ANC's #3, #6, #5, ...

........................................................................
.............................. CYCLE   38 ..............................
........................................................................

 iter      E             dE          RMSdq      gap      omega  full diag
   1   -109.4152875 -0.109415E+03  0.124E-01    0.18       0.0  T
   2   -109.3621469  0.531406E-01  0.749E-01    0.08       1.0  T
   3   -109.4151555 -0.530086E-01  0.911E-02    0.19       1.0  T
   4   -109.4152378 -0.823628E-04  0.638E-02    0.19       1.0  T
   5   -109.4154874 -0.249625E-03  0.366E-02    0.18       1.0  T
   6   -109.4155525 -0.650628E-04  0.232E-02    0.17       1.0  T
   7   -109.4155919 -0.394349E-04  0.938E-03    0.17       1.5  T
   8   -109.4155979 -0.598494E-05  0.409E-03    0.17       3.4  T
   9   -109.4155990 -0.107069E-05  0.173E-03    0.17       8.0  T
  10   -109.4155992 -0.163083E-06  0.855E-04    0.17      16.2  T
  11   -109.4155992 -0.410491E-07  0.461E-04    0.17      30.1  T
     SCC iter.                  ...        0 min,  0.027 sec
     gradient                   ...        0 min,  0.017 sec
 * total energy  :  -108.2040319 Eh     change       -0.5799040E-03 Eh
   gradient norm :     0.0123711 Eh/α   predicted    -0.4645118E-03 ( -19.90%)
   displ. norm   :     0.5591153 α      lambda       -0.8035046E-03
   maximum displ.:     0.2460155 α      in ANC's #3, #5, #6, ...

........................................................................
.............................. CYCLE   39 ..............................
........................................................................

 iter      E             dE          RMSdq      gap      omega  full diag
   1   -109.4177332 -0.109418E+03  0.151E-01    0.22       0.0  T
   2   -109.3259657  0.917675E-01  0.990E-01    0.09       1.0  T
   3   -109.4177207 -0.917550E-01  0.107E-01    0.23       1.0  T
   4   -109.4179330 -0.212316E-03  0.681E-02    0.22       1.0  T
   5   -109.4181829 -0.249921E-03  0.425E-02    0.21       1.0  T
   6   -109.4182417 -0.587920E-04  0.318E-02    0.20       1.0  T
   7   -109.4183030 -0.612787E-04  0.168E-02    0.19       1.0  T
   8   -109.4183221 -0.190675E-04  0.740E-03    0.19       1.9  T
   9   -109.4183261 -0.401382E-05  0.197E-03    0.19       7.0  T
  10   -109.4183264 -0.264711E-06  0.433E-04    0.19      32.0  T
  11   -109.4183264 -0.101839E-07  0.175E-04    0.19      79.2  T
     SCC iter.                  ...        0 min,  0.028 sec
     gradient                   ...        0 min,  0.017 sec
 * total energy  :  -108.2046899 Eh     change       -0.6579381E-03 Eh
   gradient norm :     0.0117721 Eh/α   predicted    -0.5273481E-03 ( -19.85%)
   displ. norm   :     0.5526851 α      lambda       -0.9684114E-03
   maximum displ.:     0.2071767 α      in ANC's #3, #16, #2, ...

........................................................................
.............................. CYCLE   40 ..............................
........................................................................

 iter      E             dE          RMSdq      gap      omega  full diag
   1   -109.4241711 -0.109424E+03  0.170E-01    0.29       0.0  T
   2   -109.3730348  0.511362E-01  0.750E-01    0.11       1.0  T
   3   -109.4245534 -0.515185E-01  0.105E-01    0.27       1.0  T
   4   -109.4247083 -0.154920E-03  0.578E-02    0.26       1.0  T
   5   -109.4249251 -0.216783E-03  0.257E-02    0.24       1.0  T
   6   -109.4249563 -0.312190E-04  0.144E-02    0.23       1.0  T
   7   -109.4249668 -0.104923E-04  0.727E-03    0.23       1.9  T
   8   -109.4249693 -0.249308E-05  0.356E-03    0.23       3.9  T
   9   -109.4249699 -0.638634E-06  0.179E-03    0.23       7.7  T
  10   -109.4249701 -0.154756E-06  0.846E-04    0.23      16.4  T
  11   -109.4249701 -0.364963E-07  0.406E-04    0.23      34.1  T
     SCC iter.                  ...        0 min,  0.027 sec
     gradient                   ...        0 min,  0.017 sec
 * total energy  :  -108.2053795 Eh     change       -0.6895922E-03 Eh
   gradient norm :     0.0142933 Eh/α   predicted    -0.6321132E-03 (  -8.34%)
   displ. norm   :     0.7715546 α      lambda       -0.1045602E-02
   maximum displ.:     0.3507896 α      in ANC's #3, #2, #6, ...

........................................................................
.............................. CYCLE   41 ..............................
........................................................................

 iter      E             dE          RMSdq      gap      omega  full diag
   1   -109.4171476 -0.109417E+03  0.199E-01    0.32       0.0  T
   2   -109.4169433  0.204339E-03  0.113E-01    0.25       1.0  T
   3   -109.4160938  0.849505E-03  0.138E-01    0.39       1.0  T
   4   -109.4173460 -0.125225E-02  0.315E-02    0.30       1.0  T
   5   -109.4173552 -0.920692E-05  0.108E-02    0.29       1.3  T
   6   -109.4173568 -0.159558E-05  0.589E-03    0.29       2.4  T
   7   -109.4173577 -0.936565E-06  0.316E-03    0.29       4.4  T
   8   -109.4173582 -0.427939E-06  0.118E-03    0.29      11.7  T
   9   -109.4173582 -0.182632E-07  0.624E-04    0.29      22.2  T
  10   -109.4173582 -0.327681E-08  0.229E-04    0.29      60.4  T
     SCC iter.                  ...        0 min,  0.025 sec
     gradient                   ...        0 min,  0.017 sec
 * total energy  :  -108.2061985 Eh     change       -0.8190525E-03 Eh
   gradient norm :     0.0159303 Eh/α   predicted    -0.8340260E-03 (   1.83%)
   displ. norm   :     0.4960908 α      lambda       -0.1897494E-02
   maximum displ.:     0.1843238 α      in ANC's #15, #2, #25, ...

........................................................................
.............................. CYCLE   42 ..............................
........................................................................

 iter      E             dE          RMSdq      gap      omega  full diag
   1   -109.4371000 -0.109437E+03  0.207E-01    0.41       0.0  T
   2   -109.4372880 -0.188065E-03  0.103E-01    0.41       1.0  T
   3   -109.4372456  0.424519E-04  0.627E-02    0.38       1.0  T
   4   -109.4372953 -0.497398E-04  0.305E-02    0.42       1.0  T
   5   -109.4373389 -0.435562E-04  0.113E-02    0.40       1.2  T
   6   -109.4373432 -0.432424E-05  0.518E-03    0.40       2.7  T
   7   -109.4373439 -0.753788E-06  0.225E-03    0.40       6.2  T
   8   -109.4373441 -0.133150E-06  0.859E-04    0.40      16.1  T
   9   -109.4373441 -0.375063E-08  0.457E-04    0.40      30.4  T
     SCC iter.                  ...        0 min,  0.022 sec
     gradient                   ...        0 min,  0.017 sec
 * total energy  :  -108.2057649 Eh     change        0.4336396E-03 Eh
   gradient norm :     0.0525094 Eh/α   predicted    -0.1182244E-02 (-372.63%)
   displ. norm   :     0.3297003 α      lambda       -0.3007285E-02
   maximum displ.:     0.1341329 α      in ANC's #3, #5, #16, ...
 * RMSD in coord.:     1.0322274 α      energy gain  -0.7565153E-02 Eh

generating ANC from exact Hessian ...
Using Lindh-Hessian (1995)
 Shifting diagonal of input Hessian by    9.9251009780122502E-003
 Lowest  eigenvalues of input Hessian
    0.000000    0.000000    0.000000    0.000000    0.000000    0.000000
    0.010000    0.010081    0.010131    0.010303    0.010395    0.010858
    0.011246    0.011376    0.011903    0.012070    0.012817    0.013363
 Highest eigenvalues
    2.204117    2.399418    2.457686    2.528285    3.135870    3.225615


........................................................................
.............................. CYCLE   43 ..............................
........................................................................

 iter      E             dE          RMSdq      gap      omega  full diag
   1   -109.4203911 -0.109420E+03  0.149E-01    0.48       0.0  T
   2   -109.4204836 -0.925029E-04  0.923E-02    0.46       1.0  T
   3   -109.4204547  0.289654E-04  0.584E-02    0.50       1.0  T
   4   -109.4205519 -0.972718E-04  0.242E-02    0.46       1.0  T
   5   -109.4205786 -0.266810E-04  0.557E-03    0.48       2.5  T
   6   -109.4205791 -0.482005E-06  0.280E-03    0.47       5.0  T
   7   -109.4205792 -0.660785E-07  0.133E-03    0.47      10.4  T
   8   -109.4205792 -0.242707E-07  0.720E-04    0.47      19.3  T
   9   -109.4205792 -0.773031E-08  0.337E-04    0.47      41.2  T
     SCC iter.                  ...        0 min,  0.022 sec
     gradient                   ...        0 min,  0.017 sec
 * total energy  :  -108.2072632 Eh     change       -0.1498292E-02 Eh
   gradient norm :     0.0226130 Eh/α   predicted     0.0000000E+00 (-100.00%)
   displ. norm   :     0.1772667 α      lambda       -0.1047336E-02
   maximum displ.:     0.0786146 α      in ANC's #14, #9, #6, ...

........................................................................
.............................. CYCLE   44 ..............................
........................................................................

 iter      E             dE          RMSdq      gap      omega  full diag
   1   -109.4235695 -0.109424E+03  0.102E-01    0.45       0.0  T
   2   -109.4235851 -0.155925E-04  0.607E-02    0.46       1.0  T
   3   -109.4235411  0.440069E-04  0.380E-02    0.43       1.0  T
   4   -109.4235937 -0.525661E-04  0.980E-03    0.46       1.4  T
   5   -109.4235989 -0.526343E-05  0.361E-03    0.45       3.8  T
   6   -109.4235993 -0.334398E-06  0.164E-03    0.45       8.5  T
   7   -109.4235993 -0.517968E-07  0.621E-04    0.45      22.3  T
   8   -109.4235993 -0.102475E-07  0.273E-04    0.45      50.8  T
     SCC iter.                  ...        0 min,  0.020 sec
     gradient                   ...        0 min,  0.017 sec
 * total energy  :  -108.2075656 Eh     change       -0.3024074E-03 Eh
   gradient norm :     0.0123024 Eh/α   predicted    -0.5402027E-03 (  78.63%)
   displ. norm   :     0.2755600 α      lambda       -0.1674408E-02
   maximum displ.:     0.1006533 α      in ANC's #7, #24, #8, ...

........................................................................
.............................. CYCLE   45 ..............................
........................................................................

 iter      E             dE          RMSdq      gap      omega  full diag
   1   -109.4319963 -0.109432E+03  0.133E-01    0.48       0.0  T
   2   -109.4320537 -0.573994E-04  0.777E-02    0.48       1.0  T
   3   -109.4320082  0.454392E-04  0.486E-02    0.46       1.0  T
   4   -109.4320822 -0.739522E-04  0.160E-02    0.49       1.0  T
   5   -109.4320934 -0.112374E-04  0.540E-03    0.48       2.6  T
   6   -109.4320938 -0.380637E-06  0.301E-03    0.48       4.6  T
   7   -109.4320940 -0.203952E-06  0.121E-03    0.48      11.4  T
   8   -109.4320940 -0.348505E-07  0.546E-04    0.48      25.4  T
   9   -109.4320940 -0.304546E-08  0.218E-04    0.48      63.5  T
     SCC iter.                  ...        0 min,  0.022 sec
     gradient                   ...        0 min,  0.017 sec
 * total energy  :  -108.2076038 Eh     change       -0.3823833E-04 Eh
   gradient norm :     0.0296635 Eh/α   predicted    -0.9007867E-03 (2255.72%)
   displ. norm   :     0.0993554 α      lambda       -0.1206893E-02
   maximum displ.:     0.0423168 α      in ANC's #20, #14, #5, ...

........................................................................
.............................. CYCLE   46 ..............................
........................................................................

 iter      E             dE          RMSdq      gap      omega  full diag
   1   -109.4270541 -0.109427E+03  0.736E-02    0.48       0.0  T
   2   -109.4270874 -0.332420E-04  0.424E-02    0.50       1.0  T
   3   -109.4270858  0.158859E-05  0.240E-02    0.48       1.0  T
   4   -109.4270923 -0.653589E-05  0.969E-03    0.49       1.4  T
   5   -109.4270960 -0.370927E-05  0.346E-03    0.49       4.0  T
   6   -109.4270963 -0.279448E-06  0.154E-03    0.49       9.0  T
   7   -109.4270963 -0.307891E-07  0.654E-04    0.49      21.2  T
   8   -109.4270963 -0.476891E-08  0.377E-04    0.49      36.7  T
     SCC iter.                  ...        0 min,  0.020 sec
     gradient                   ...        0 min,  0.017 sec
 * total energy  :  -108.2082382 Eh     change       -0.6343732E-03 Eh
   gradient norm :     0.0088854 Eh/α   predicted    -0.6094036E-03 (  -3.94%)
   displ. norm   :     0.2145637 α      lambda       -0.7510917E-03
   maximum displ.:     0.0990932 α      in ANC's #4, #6, #9, ...

........................................................................
.............................. CYCLE   47 ..............................
........................................................................

 iter      E             dE          RMSdq      gap      omega  full diag
   1   -109.4197525 -0.109420E+03  0.123E-01    0.51       0.0  T
   2   -109.4197906 -0.381413E-04  0.712E-02    0.54       1.0  T
   3   -109.4197703  0.202763E-04  0.400E-02    0.51       1.0  T
   4   -109.4198042 -0.338562E-04  0.107E-02    0.53       1.3  T
   5   -109.4198085 -0.432830E-05  0.434E-03    0.53       3.2  T
   6   -109.4198092 -0.727888E-06  0.152E-03    0.53       9.1  T
   7   -109.4198093 -0.297683E-07  0.549E-04    0.53      25.3  T
   8   -109.4198093 -0.434130E-08  0.296E-04    0.53      46.8  T
     SCC iter.                  ...        0 min,  0.020 sec
     gradient                   ...        0 min,  0.017 sec
 * total energy  :  -108.2080479 Eh     change        0.1902748E-03 Eh
   gradient norm :     0.0159174 Eh/α   predicted    -0.3928354E-03 (-306.46%)
   displ. norm   :     0.1709833 α      lambda       -0.1138365E-02
   maximum displ.:     0.0782927 α      in ANC's #5, #3, #13, ...

........................................................................
.............................. CYCLE   48 ..............................
........................................................................

 iter      E             dE          RMSdq      gap      omega  full diag
   1   -109.4228579 -0.109423E+03  0.855E-02    0.54       0.0  T
   2   -109.4228762 -0.183261E-04  0.508E-02    0.55       1.0  T
   3   -109.4228572  0.189394E-04  0.346E-02    0.53       1.0  T
   4   -109.4228947 -0.374293E-04  0.866E-03    0.55       1.6  T
   5   -109.4228980 -0.336359E-05  0.290E-03    0.54       4.8  T
   6   -109.4228982 -0.129706E-06  0.141E-03    0.55       9.8  T
   7   -109.4228982 -0.582655E-07  0.483E-04    0.54      28.7  T
   8   -109.4228982 -0.686063E-08  0.204E-04    0.55      67.9  T
     SCC iter.                  ...        0 min,  0.020 sec
     gradient                   ...        0 min,  0.017 sec
 * total energy  :  -108.2086737 Eh     change       -0.6257735E-03 Eh
   gradient norm :     0.0085340 Eh/α   predicted    -0.5858230E-03 (  -6.38%)
   displ. norm   :     0.2326508 α      lambda       -0.4243018E-03
   maximum displ.:     0.1041613 α      in ANC's #5, #3, #8, ...

........................................................................
.............................. CYCLE   49 ..............................
........................................................................

 iter      E             dE          RMSdq      gap      omega  full diag
   1   -109.4243137 -0.109424E+03  0.701E-02    0.56       0.0  T
   2   -109.4243277 -0.139740E-04  0.379E-02    0.59       1.0  T
   3   -109.4243181  0.954609E-05  0.271E-02    0.56       1.0  T
   4   -109.4243425 -0.243676E-04  0.717E-03    0.58       1.9  T
   5   -109.4243437 -0.126194E-05  0.317E-03    0.58       4.4  T
   6   -109.4243439 -0.159655E-06  0.177E-03    0.58       7.8  T
   7   -109.4243440 -0.877990E-07  0.547E-04    0.58      25.4  T
   8   -109.4243440 -0.469610E-08  0.306E-04    0.58      45.3  T
     SCC iter.                  ...        0 min,  0.020 sec
     gradient                   ...        0 min,  0.017 sec
 * total energy  :  -108.2089733 Eh     change       -0.2995630E-03 Eh
   gradient norm :     0.0064706 Eh/α   predicted    -0.2236341E-03 ( -25.35%)
   displ. norm   :     0.4929468 α      lambda       -0.5798754E-03
   maximum displ.:     0.2183711 α      in ANC's #5, #3, #8, ...

........................................................................
.............................. CYCLE   50 ..............................
........................................................................

 iter      E             dE          RMSdq      gap      omega  full diag
   1   -109.4212960 -0.109421E+03  0.153E-01    0.62       0.0  T
   2   -109.4213674 -0.713826E-04  0.829E-02    0.66       1.0  T
   3   -109.4213957 -0.282681E-04  0.586E-02    0.62       1.0  T
   4   -109.4214877 -0.920550E-04  0.151E-02    0.64       1.0  T
   5   -109.4214932 -0.546668E-05  0.646E-03    0.64       2.1  T
   6   -109.4214941 -0.868399E-06  0.327E-03    0.64       4.2  T
   7   -109.4214943 -0.282556E-06  0.111E-03    0.64      12.5  T
   8   -109.4214944 -0.333686E-07  0.512E-04    0.64      27.1  T
   9   -109.4214944 -0.154709E-08  0.239E-04    0.64      58.1  T
     SCC iter.                  ...        0 min,  0.022 sec
     gradient                   ...        0 min,  0.017 sec
 * total energy  :  -108.2094497 Eh     change       -0.4764608E-03 Eh
   gradient norm :     0.0093208 Eh/α   predicted    -0.3603974E-03 ( -24.36%)
   displ. norm   :     0.6053231 α      lambda       -0.6894106E-03
   maximum displ.:     0.2654781 α      in ANC's #5, #3, #4, ...

........................................................................
.............................. CYCLE   51 ..............................
........................................................................

 iter      E             dE          RMSdq      gap      omega  full diag
   1   -109.4191971 -0.109419E+03  0.196E-01    0.67       0.0  T
   2   -109.4193177 -0.120618E-03  0.108E-01    0.72       1.0  T
   3   -109.4193897 -0.720318E-04  0.753E-02    0.67       1.0  T
   4   -109.4195294 -0.139696E-03  0.193E-02    0.70       1.0  T
   5   -109.4195391 -0.971074E-05  0.773E-03    0.69       1.8  T
   6   -109.4195404 -0.124184E-05  0.377E-03    0.70       3.7  T
   7   -109.4195407 -0.360481E-06  0.137E-03    0.69      10.1  T
   8   -109.4195408 -0.569225E-07  0.599E-04    0.69      23.2  T
   9   -109.4195408 -0.287532E-08  0.288E-04    0.69      48.2  T
     SCC iter.                  ...        0 min,  0.022 sec
     gradient                   ...        0 min,  0.017 sec
 * total energy  :  -108.2099906 Eh     change       -0.5409231E-03 Eh
   gradient norm :     0.0091630 Eh/α   predicted    -0.4710121E-03 ( -12.92%)
   displ. norm   :     0.5162303 α      lambda       -0.5650449E-03
   maximum displ.:     0.2249361 α      in ANC's #5, #3, #4, ...

........................................................................
.............................. CYCLE   52 ..............................
........................................................................

 iter      E             dE          RMSdq      gap      omega  full diag
   1   -109.4209192 -0.109421E+03  0.163E-01    0.71       0.0  T
   2   -109.4209915 -0.722352E-04  0.892E-02    0.74       1.0  T
   3   -109.4209827  0.873032E-05  0.628E-02    0.71       1.0  T
   4   -109.4210785 -0.957915E-04  0.157E-02    0.73       1.0  T
   5   -109.4210863 -0.783399E-05  0.638E-03    0.73       2.2  T
   6   -109.4210873 -0.958536E-06  0.271E-03    0.73       5.1  T
   7   -109.4210875 -0.178751E-06  0.103E-03    0.73      13.5  T
   8   -109.4210875 -0.318852E-07  0.483E-04    0.73      28.7  T
   9   -109.4210875 -0.229859E-08  0.211E-04    0.73      65.6  T
     SCC iter.                  ...        0 min,  0.022 sec
     gradient                   ...        0 min,  0.017 sec
 * total energy  :  -108.2104169 Eh     change       -0.4262988E-03 Eh
   gradient norm :     0.0080374 Eh/α   predicted    -0.3578160E-03 ( -16.06%)
   displ. norm   :     0.5604188 α      lambda       -0.4293555E-03
   maximum displ.:     0.2502821 α      in ANC's #3, #5, #4, ...

........................................................................
.............................. CYCLE   53 ..............................
........................................................................

 iter      E             dE          RMSdq      gap      omega  full diag
   1   -109.4193854 -0.109419E+03  0.164E-01    0.74       0.0  T
   2   -109.4194346 -0.491717E-04  0.903E-02    0.77       1.0  T
   3   -109.4193894  0.451309E-04  0.646E-02    0.74       1.0  T
   4   -109.4195086 -0.119127E-03  0.146E-02    0.76       1.0  T
   5   -109.4195145 -0.595973E-05  0.623E-03    0.76       2.2  T
   6   -109.4195153 -0.761638E-06  0.269E-03    0.76       5.2  T
   7   -109.4195155 -0.227295E-06  0.974E-04    0.76      14.2  T
   8   -109.4195155 -0.243856E-07  0.496E-04    0.76      28.0  T
     SCC iter.                  ...        0 min,  0.020 sec
     gradient                   ...        0 min,  0.017 sec
 * total energy  :  -108.2107376 Eh     change       -0.3206370E-03 Eh
   gradient norm :     0.0081700 Eh/α   predicted    -0.2821024E-03 ( -12.02%)
   displ. norm   :     0.4633704 α      lambda       -0.4581943E-03
   maximum displ.:     0.2130746 α      in ANC's #3, #5, #4, ...

........................................................................
.............................. CYCLE   54 ..............................
........................................................................

 iter      E             dE          RMSdq      gap      omega  full diag
   1   -109.4272551 -0.109427E+03  0.128E-01    0.77       0.0  T
   2   -109.4272660 -0.108745E-04  0.721E-02    0.76       1.0  T
   3   -109.4272238  0.421698E-04  0.324E-02    0.77       1.0  T
   4   -109.4272720 -0.482172E-04  0.927E-03    0.76       1.5  T
   5   -109.4272737 -0.164222E-05  0.362E-03    0.76       3.8  T
   6   -109.4272739 -0.223112E-06  0.124E-03    0.76      11.2  T
   7   -109.4272739 -0.404931E-07  0.595E-04    0.76      23.3  T
   8   -109.4272739 -0.784709E-09  0.401E-04    0.76      34.6  T
     SCC iter.                  ...        0 min,  0.020 sec
     gradient                   ...        0 min,  0.017 sec
 * total energy  :  -108.2109904 Eh     change       -0.2527847E-03 Eh
   gradient norm :     0.0108397 Eh/α   predicted    -0.2782916E-03 (  10.09%)
   displ. norm   :     0.5508511 α      lambda       -0.3371493E-03
   maximum displ.:     0.2598891 α      in ANC's #3, #5, #4, ...

........................................................................
.............................. CYCLE   55 ..............................
........................................................................

 iter      E             dE          RMSdq      gap      omega  full diag
   1   -109.4193288 -0.109419E+03  0.156E-01    0.77       0.0  T
   2   -109.4193637 -0.348269E-04  0.880E-02    0.79       1.0  T
   3   -109.4193005  0.631198E-04  0.616E-02    0.76       1.0  T
   4   -109.4194168 -0.116249E-03  0.137E-02    0.78       1.0  T
   5   -109.4194227 -0.585776E-05  0.581E-03    0.78       2.4  T
   6   -109.4194235 -0.840972E-06  0.225E-03    0.78       6.2  T
   7   -109.4194236 -0.138621E-06  0.857E-04    0.78      16.2  T
   8   -109.4194237 -0.163283E-07  0.465E-04    0.78      29.8  T
     SCC iter.                  ...        0 min,  0.020 sec
     gradient                   ...        0 min,  0.019 sec
 * total energy  :  -108.2112121 Eh     change       -0.2217902E-03 Eh
   gradient norm :     0.0105999 Eh/α   predicted    -0.2197291E-03 (  -0.93%)
   displ. norm   :     0.3133827 α      lambda       -0.2993967E-03
   maximum displ.:     0.1627737 α      in ANC's #3, #5, #4, ...

........................................................................
.............................. CYCLE   56 ..............................
........................................................................

 iter      E             dE          RMSdq      gap      omega  full diag
   1   -109.4221029 -0.109422E+03  0.820E-02    0.81       0.0  T
   2   -109.4221077 -0.474337E-05  0.474E-02    0.80       1.0  T
   3   -109.4220775  0.302081E-04  0.278E-02    0.81       1.0  T
   4   -109.4221133 -0.358336E-04  0.521E-03    0.79       2.7  T
   5   -109.4221140 -0.650525E-06  0.220E-03    0.80       6.3  T
   6   -109.4221140 -0.811912E-07  0.794E-04    0.80      17.5  T
   7   -109.4221141 -0.117881E-07  0.401E-04    0.80      34.6  T
     SCC iter.                  ...        0 min,  0.018 sec
     gradient                   ...        0 min,  0.017 sec
 * total energy  :  -108.2114207 Eh     change       -0.2085621E-03 Eh
   gradient norm :     0.0071965 Eh/α   predicted    -0.1644025E-03 ( -21.17%)
   displ. norm   :     0.4067390 α      lambda       -0.3870364E-03
   maximum displ.:     0.2180113 α      in ANC's #3, #5, #4, ...

........................................................................
.............................. CYCLE   57 ..............................
........................................................................

 iter      E             dE          RMSdq      gap      omega  full diag
   1   -109.4234048 -0.109423E+03  0.136E-01    0.80       0.0  T
   2   -109.4234119 -0.708300E-05  0.823E-02    0.77       1.0  T
   3   -109.4233551  0.568507E-04  0.609E-02    0.80       1.0  T
   4   -109.4234864 -0.131311E-03  0.670E-03    0.78       2.1  T
   5   -109.4234875 -0.114026E-05  0.283E-03    0.78       4.9  T
   6   -109.4234876 -0.658644E-07  0.171E-03    0.78       8.1  T
   7   -109.4234877 -0.803931E-07  0.711E-04    0.78      19.5  T
   8   -109.4234877 -0.495970E-08  0.395E-04    0.78      35.1  T
     SCC iter.                  ...        0 min,  0.020 sec
     gradient                   ...        0 min,  0.017 sec
 * total energy  :  -108.2117060 Eh     change       -0.2852623E-03 Eh
   gradient norm :     0.0097487 Eh/α   predicted    -0.2255344E-03 ( -20.94%)
   displ. norm   :     0.4744746 α      lambda       -0.4416859E-03
   maximum displ.:     0.2495763 α      in ANC's #3, #5, #4, ...

........................................................................
.............................. CYCLE   58 ..............................
........................................................................

 iter      E             dE          RMSdq      gap      omega  full diag
   1   -109.4268296 -0.109427E+03  0.162E-01    0.79       0.0  T
   2   -109.4269021 -0.724818E-04  0.973E-02    0.75       1.0  T
   3   -109.4269886 -0.864853E-04  0.655E-02    0.78       1.0  T
   4   -109.4270680 -0.794730E-04  0.160E-02    0.76       1.0  T
   5   -109.4270807 -0.126041E-04  0.460E-03    0.76       3.0  T
   6   -109.4270812 -0.543374E-06  0.202E-03    0.76       6.9  T
   7   -109.4270812 -0.257492E-07  0.121E-03    0.76      11.4  T
   8   -109.4270812 -0.283242E-07  0.621E-04    0.76      22.3  T
   9   -109.4270813 -0.417317E-08  0.290E-04    0.76      47.8  T
     SCC iter.                  ...        0 min,  0.022 sec
     gradient                   ...        0 min,  0.017 sec
 * total energy  :  -108.2119950 Eh     change       -0.2890369E-03 Eh
   gradient norm :     0.0129615 Eh/α   predicted    -0.2705616E-03 (  -6.39%)
   displ. norm   :     0.5562447 α      lambda       -0.5175311E-03
   maximum displ.:     0.3028439 α      in ANC's #3, #5, #4, ...

........................................................................
.............................. CYCLE   59 ..............................
........................................................................

 iter      E             dE          RMSdq      gap      omega  full diag
   1   -109.4227891 -0.109423E+03  0.220E-01    0.74       0.0  T
   2   -109.4228577 -0.685751E-04  0.132E-01    0.68       1.0  T
   3   -109.4228915 -0.338216E-04  0.944E-02    0.74       1.0  T
   4   -109.4231399 -0.248333E-03  0.156E-02    0.71       1.0  T
   5   -109.4231478 -0.793438E-05  0.497E-03    0.71       2.8  T
   6   -109.4231482 -0.447687E-06  0.283E-03    0.71       4.9  T
   7   -109.4231484 -0.170514E-06  0.134E-03    0.71      10.3  T
   8   -109.4231484 -0.185137E-07  0.669E-04    0.71      20.7  T
   9   -109.4231484 -0.311090E-08  0.348E-04    0.71      39.8  T
     SCC iter.                  ...        0 min,  0.022 sec
     gradient                   ...        0 min,  0.017 sec
 * total energy  :  -108.2123402 Eh     change       -0.3451835E-03 Eh
   gradient norm :     0.0176554 Eh/α   predicted    -0.3388362E-03 (  -1.84%)
   displ. norm   :     0.3473335 α      lambda       -0.5715170E-03
   maximum displ.:     0.1485756 α      in ANC's #3, #5, #4, ...

........................................................................
.............................. CYCLE   60 ..............................
........................................................................

 iter      E             dE          RMSdq      gap      omega  full diag
   1   -109.4282833 -0.109428E+03  0.171E-01    0.70       0.0  T
   2   -109.4284273 -0.143962E-03  0.107E-01    0.64       1.0  T
   3   -109.4286416 -0.214325E-03  0.656E-02    0.69       1.0  T
   4   -109.4287257 -0.841632E-04  0.189E-02    0.67       1.0  T
   5   -109.4287351 -0.934201E-05  0.489E-03    0.67       2.8  T
   6   -109.4287356 -0.562449E-06  0.267E-03    0.67       5.2  T
   7   -109.4287358 -0.118797E-06  0.141E-03    0.67       9.8  T
   8   -109.4287358 -0.298589E-07  0.613E-04    0.67      22.6  T
   9   -109.4287358 -0.260060E-08  0.265E-04    0.67      52.4  T
     SCC iter.                  ...        0 min,  0.023 sec
     gradient                   ...        0 min,  0.017 sec
 * total energy  :  -108.2126247 Eh     change       -0.2845530E-03 Eh
   gradient norm :     0.0243958 Eh/α   predicted    -0.3202339E-03 (  12.54%)
   displ. norm   :     0.4592678 α      lambda       -0.9761668E-03
   maximum displ.:     0.2114788 α      in ANC's #3, #5, #4, ...

........................................................................
.............................. CYCLE   61 ..............................
........................................................................

 iter      E             dE          RMSdq      gap      omega  full diag
   1   -109.4190877 -0.109419E+03  0.171E-01    0.70       0.0  T
   2   -109.4192432 -0.155473E-03  0.984E-02    0.67       1.0  T
   3   -109.4192683 -0.250853E-04  0.613E-02    0.70       1.0  T
   4   -109.4193181 -0.498076E-04  0.167E-02    0.68       1.0  T
   5   -109.4193322 -0.141641E-04  0.473E-03    0.69       2.9  T
   6   -109.4193328 -0.549537E-06  0.231E-03    0.69       6.0  T
   7   -109.4193328 -0.526202E-07  0.119E-03    0.69      11.6  T
   8   -109.4193329 -0.150525E-07  0.672E-04    0.69      20.6  T
   9   -109.4193329 -0.812999E-08  0.305E-04    0.69      45.4  T
     SCC iter.                  ...        0 min,  0.022 sec
     gradient                   ...        0 min,  0.017 sec
 * total energy  :  -108.2131240 Eh     change       -0.4992101E-03 Eh
   gradient norm :     0.0204979 Eh/α   predicted    -0.5910390E-03 (  18.39%)
   displ. norm   :     0.1339848 α      lambda       -0.5739659E-03
   maximum displ.:     0.0416320 α      in ANC's #7, #5, #2, ...

........................................................................
.............................. CYCLE   62 ..............................
........................................................................

 iter      E             dE          RMSdq      gap      omega  full diag
   1   -109.4242380 -0.109424E+03  0.618E-02    0.69       0.0  T
   2   -109.4242914 -0.534245E-04  0.362E-02    0.70       1.0  T
   3   -109.4243063 -0.148479E-04  0.201E-02    0.70       1.0  T
   4   -109.4243070 -0.703353E-06  0.104E-02    0.70       1.3  T
   5   -109.4243113 -0.428207E-05  0.252E-03    0.70       5.5  T
   6   -109.4243114 -0.935379E-07  0.132E-03    0.70      10.5  T
   7   -109.4243114 -0.278332E-07  0.607E-04    0.70      22.9  T
   8   -109.4243114 -0.140646E-08  0.361E-04    0.70      38.5  T
     SCC iter.                  ...        0 min,  0.020 sec
     gradient                   ...        0 min,  0.017 sec
 * total energy  :  -108.2132500 Eh     change       -0.1260054E-03 Eh
   gradient norm :     0.0185708 Eh/α   predicted    -0.2921375E-03 ( 131.85%)
   displ. norm   :     0.1685811 α      lambda        0.3523118E-03
   maximum displ.:     0.0658271 α      in ANC's #6, #4, #2, ...

........................................................................
.............................. CYCLE   63 ..............................
........................................................................

 iter      E             dE          RMSdq      gap      omega  full diag
   1   -109.4233230 -0.109423E+03  0.879E-02    0.72       0.0  T
   2   -109.4234441 -0.121125E-03  0.539E-02    0.71       1.0  T
   3   -109.4234876 -0.434784E-04  0.281E-02    0.71       1.0  T
   4   -109.4234890 -0.143881E-05  0.998E-03    0.71       1.4  T
   5   -109.4234923 -0.323793E-05  0.311E-03    0.72       4.5  T
   6   -109.4234926 -0.313410E-06  0.152E-03    0.71       9.1  T
   7   -109.4234926 -0.531559E-07  0.519E-04    0.71      26.7  T
   8   -109.4234926 -0.216713E-08  0.249E-04    0.71      55.7  T
     SCC iter.                  ...        0 min,  0.020 sec
     gradient                   ...        0 min,  0.017 sec
 * total energy  :  -108.2128671 Eh     change        0.3829015E-03 Eh
   gradient norm :     0.0312927 Eh/α   predicted     0.1811619E-03 ( -52.69%)
   displ. norm   :     0.2927836 α      lambda       -0.1577226E-02
   maximum displ.:     0.1184632 α      in ANC's #3, #5, #24, ...

........................................................................
.............................. CYCLE   64 ..............................
........................................................................

 iter      E             dE          RMSdq      gap      omega  full diag
   1   -109.4263812 -0.109426E+03  0.177E-01    0.73       0.0  T
   2   -109.4267149 -0.333733E-03  0.994E-02    0.67       1.0  T
   3   -109.4268378 -0.122868E-03  0.583E-02    0.71       1.0  T
   4   -109.4268708 -0.329843E-04  0.238E-02    0.68       1.0  T
   5   -109.4268881 -0.173180E-04  0.691E-03    0.69       2.0  T
   6   -109.4268899 -0.181597E-05  0.283E-03    0.69       4.9  T
   7   -109.4268900 -0.648259E-07  0.151E-03    0.69       9.2  T
   8   -109.4268900 -0.197833E-07  0.884E-04    0.69      15.7  T
   9   -109.4268900 -0.130209E-07  0.390E-04    0.69      35.5  T
     SCC iter.                  ...        0 min,  0.023 sec
     gradient                   ...        0 min,  0.018 sec
 * total energy  :  -108.2137220 Eh     change       -0.8549404E-03 Eh
   gradient norm :     0.0178356 Eh/α   predicted    -0.8562173E-03 (   0.15%)
   displ. norm   :     0.5277335 α      lambda       -0.6816810E-03
   maximum displ.:     0.2641935 α      in ANC's #3, #4, #5, ...

........................................................................
.............................. CYCLE   65 ..............................
........................................................................

 iter      E             dE          RMSdq      gap      omega  full diag
   1   -109.4136202 -0.109414E+03  0.168E-01    0.66       0.0  T
   2   -109.4137141 -0.939266E-04  0.101E-01    0.62       1.0  T
   3   -109.4137007  0.133942E-04  0.686E-02    0.67       1.0  T
   4   -109.4138490 -0.148270E-03  0.153E-02    0.64       1.0  T
   5   -109.4138562 -0.725942E-05  0.519E-03    0.64       2.7  T
   6   -109.4138565 -0.293378E-06  0.275E-03    0.64       5.1  T
   7   -109.4138567 -0.144127E-06  0.144E-03    0.64       9.6  T
   8   -109.4138567 -0.417851E-07  0.713E-04    0.64      19.4  T
   9   -109.4138567 -0.465216E-08  0.360E-04    0.64      38.5  T
     SCC iter.                  ...        0 min,  0.023 sec
     gradient                   ...        0 min,  0.018 sec
 * total energy  :  -108.2137446 Eh     change       -0.2257713E-04 Eh
   gradient norm :     0.0368040 Eh/α   predicted    -0.4357703E-03 (1830.14%)
   displ. norm   :     0.1508026 α      lambda       -0.1104678E-02
   maximum displ.:     0.0480909 α      in ANC's #23, #1, #26, ...

........................................................................
.............................. CYCLE   66 ..............................
........................................................................

 iter      E             dE          RMSdq      gap      omega  full diag
   1   -109.4317782 -0.109432E+03  0.805E-02    0.71       0.0  T
   2   -109.4318931 -0.114948E-03  0.503E-02    0.67       1.0  T
   3   -109.4319336 -0.404370E-04  0.252E-02    0.68       1.0  T
   4   -109.4319333  0.298480E-06  0.982E-03    0.67       1.4  T
   5   -109.4319359 -0.263760E-05  0.334E-03    0.68       4.2  T
   6   -109.4319362 -0.325103E-06  0.158E-03    0.68       8.8  T
   7   -109.4319363 -0.368417E-07  0.755E-04    0.68      18.4  T
   8   -109.4319363 -0.304378E-08  0.352E-04    0.68      39.4  T
     SCC iter.                  ...        0 min,  0.021 sec
     gradient                   ...        0 min,  0.018 sec
 * total energy  :  -108.2142406 Eh     change       -0.4960667E-03 Eh
   gradient norm :     0.0216841 Eh/α   predicted    -0.5649002E-03 (  13.88%)
   displ. norm   :     0.5351286 α      lambda       -0.1668806E-02
   maximum displ.:     0.2823429 α      in ANC's #5, #3, #2, ...
 * RMSD in coord.:     1.0251378 α      energy gain  -0.8475763E-02 Eh

generating ANC from exact Hessian ...
Using Lindh-Hessian (1995)
 Shifting diagonal of input Hessian by    9.9188022856126334E-003
 Lowest  eigenvalues of input Hessian
    0.000000    0.000000    0.000000    0.000000    0.000000    0.000000
    0.010000    0.010073    0.010119    0.010314    0.010409    0.010857
    0.011263    0.011486    0.011924    0.012015    0.012580    0.012897
 Highest eigenvalues
    2.213853    2.412455    2.422576    2.524560    3.148282    3.166364


........................................................................
.............................. CYCLE   67 ..............................
........................................................................

 iter      E             dE          RMSdq      gap      omega  full diag
   1   -109.4279490 -0.109428E+03  0.205E-01    0.74       0.0  T
   2   -109.4280963 -0.147383E-03  0.120E-01    0.72       1.0  T
   3   -109.4280697  0.266197E-04  0.619E-02    0.73       1.0  T
   4   -109.4281521 -0.823357E-04  0.131E-02    0.73       1.1  T
   5   -109.4281587 -0.663335E-05  0.512E-03    0.73       2.7  T
   6   -109.4281591 -0.420068E-06  0.278E-03    0.73       5.0  T
   7   -109.4281592 -0.132616E-06  0.119E-03    0.73      11.7  T
   8   -109.4281593 -0.167031E-07  0.704E-04    0.73      19.7  T
   9   -109.4281593 -0.777881E-08  0.344E-04    0.73      40.3  T
     SCC iter.                  ...        0 min,  0.024 sec
     gradient                   ...        0 min,  0.018 sec
 * total energy  :  -108.2144348 Eh     change       -0.1941635E-03 Eh
   gradient norm :     0.0503916 Eh/α   predicted     0.0000000E+00 (-100.00%)
   displ. norm   :     0.2181515 α      lambda       -0.2453560E-02
   maximum displ.:     0.0840052 α      in ANC's #14, #4, #9, ...

........................................................................
.............................. CYCLE   68 ..............................
........................................................................

 iter      E             dE          RMSdq      gap      omega  full diag
   1   -109.4291560 -0.109429E+03  0.178E-01    0.69       0.0  T
   2   -109.4294006 -0.244599E-03  0.117E-01    0.68       1.0  T
   3   -109.4295402 -0.139673E-03  0.673E-02    0.70       1.0  T
   4   -109.4295889 -0.486237E-04  0.218E-02    0.68       1.0  T
   5   -109.4296099 -0.209920E-04  0.432E-03    0.69       3.2  T
   6   -109.4296100 -0.143554E-06  0.240E-03    0.69       5.8  T
   7   -109.4296101 -0.803072E-07  0.115E-03    0.69      12.0  T
   8   -109.4296101 -0.361944E-07  0.515E-04    0.69      26.9  T
   9   -109.4296101 -0.398593E-08  0.194E-04    0.69      71.7  T
     SCC iter.                  ...        0 min,  0.023 sec
     gradient                   ...        0 min,  0.018 sec
 * total energy  :  -108.2150681 Eh     change       -0.6332529E-03 Eh
   gradient norm :     0.0203589 Eh/α   predicted    -0.1289894E-02 ( 103.69%)
   displ. norm   :     0.3201545 α      lambda       -0.3141463E-02
   maximum displ.:     0.1593487 α      in ANC's #14, #4, #28, ...

........................................................................
.............................. CYCLE   69 ..............................
........................................................................

 iter      E             dE          RMSdq      gap      omega  full diag
   1   -109.4353193 -0.109435E+03  0.213E-01    0.75       0.0  T
   2   -109.4354234 -0.104154E-03  0.126E-01    0.72       1.0  T
   3   -109.4353444  0.790736E-04  0.577E-02    0.75       1.0  T
   4   -109.4354510 -0.106635E-03  0.169E-02    0.72       1.0  T
   5   -109.4354618 -0.107781E-04  0.645E-03    0.73       2.1  T
   6   -109.4354617  0.433663E-07  0.358E-03    0.73       3.9  T
   7   -109.4354620 -0.309972E-06  0.151E-03    0.73       9.2  T
   8   -109.4354621 -0.438873E-07  0.638E-04    0.73      21.7  T
   9   -109.4354621 -0.680687E-08  0.294E-04    0.73      47.2  T
     SCC iter.                  ...        0 min,  0.023 sec
     gradient                   ...        0 min,  0.017 sec
 * total energy  :  -108.2149725 Eh     change        0.9560406E-04 Eh
   gradient norm :     0.0480556 Eh/α   predicted    -0.1731731E-02 (*******%)
   displ. norm   :     0.1545579 α      lambda       -0.2345478E-02
   maximum displ.:     0.0913916 α      in ANC's #4, #3, #14, ...

........................................................................
.............................. CYCLE   70 ..............................
........................................................................

 iter      E             dE          RMSdq      gap      omega  full diag
   1   -109.4318886 -0.109432E+03  0.110E-01    0.73       0.0  T
   2   -109.4319626 -0.739958E-04  0.687E-02    0.75       1.0  T
   3   -109.4319797 -0.170874E-04  0.400E-02    0.73       1.0  T
   4   -109.4320032 -0.235001E-04  0.105E-02    0.74       1.3  T
   5   -109.4320087 -0.545835E-05  0.253E-03    0.74       5.5  T
   6   -109.4320088 -0.101159E-06  0.133E-03    0.74      10.5  T
   7   -109.4320088 -0.187342E-07  0.624E-04    0.74      22.2  T
   8   -109.4320088 -0.793165E-08  0.310E-04    0.74      44.8  T
     SCC iter.                  ...        0 min,  0.020 sec
     gradient                   ...        0 min,  0.018 sec
 * total energy  :  -108.2164329 Eh     change       -0.1460495E-02 Eh
   gradient norm :     0.0094939 Eh/α   predicted    -0.1200765E-02 ( -17.78%)
   displ. norm   :     0.3221534 α      lambda       -0.1284927E-02
   maximum displ.:     0.1666586 α      in ANC's #6, #4, #3, ...

........................................................................
.............................. CYCLE   71 ..............................
........................................................................

 iter      E             dE          RMSdq      gap      omega  full diag
   1   -109.4278189 -0.109428E+03  0.153E-01    0.77       0.0  T
   2   -109.4278577 -0.388595E-04  0.899E-02    0.75       1.0  T
   3   -109.4277807  0.769767E-04  0.469E-02    0.78       1.0  T
   4   -109.4278792 -0.984262E-04  0.986E-03    0.76       1.4  T
   5   -109.4278825 -0.329754E-05  0.293E-03    0.76       4.7  T
   6   -109.4278826 -0.109171E-06  0.137E-03    0.76      10.1  T
   7   -109.4278826 -0.684092E-08  0.763E-04    0.76      18.2  T
   8   -109.4278826 -0.630918E-08  0.367E-04    0.76      37.8  T
     SCC iter.                  ...        0 min,  0.020 sec
     gradient                   ...        0 min,  0.017 sec
 * total energy  :  -108.2171081 Eh     change       -0.6751708E-03 Eh
   gradient norm :     0.0170973 Eh/α   predicted    -0.7091421E-03 (   5.03%)
   displ. norm   :     0.5338566 α      lambda       -0.1998280E-02
   maximum displ.:     0.2767105 α      in ANC's #4, #3, #6, ...

........................................................................
.............................. CYCLE   72 ..............................
........................................................................

 iter      E             dE          RMSdq      gap      omega  full diag
   1   -109.4241064 -0.109424E+03  0.215E-01    0.84       0.0  T
   2   -109.4245346 -0.428190E-03  0.127E-01    0.80       1.0  T
   3   -109.4246404 -0.105801E-03  0.721E-02    0.84       1.0  T
   4   -109.4247090 -0.685646E-04  0.238E-02    0.82       1.0  T
   5   -109.4247273 -0.183434E-04  0.892E-03    0.83       1.6  T
   6   -109.4247293 -0.195110E-05  0.303E-03    0.82       4.6  T
   7   -109.4247293 -0.534744E-07  0.173E-03    0.82       8.0  T
   8   -109.4247293 -0.227760E-07  0.792E-04    0.82      17.5  T
   9   -109.4247293 -0.749465E-08  0.475E-04    0.82      29.2  T
     SCC iter.                  ...        0 min,  0.023 sec
     gradient                   ...        0 min,  0.017 sec
 * total energy  :  -108.2179917 Eh     change       -0.8835769E-03 Eh
   gradient norm :     0.0470681 Eh/α   predicted    -0.1283903E-02 (  45.31%)
   displ. norm   :     0.4021224 α      lambda       -0.2627338E-02
   maximum displ.:     0.1839305 α      in ANC's #6, #4, #3, ...

........................................................................
.............................. CYCLE   73 ..............................
........................................................................

 iter      E             dE          RMSdq      gap      omega  full diag
   1   -109.4270142 -0.109427E+03  0.183E-01    0.97       0.0  T
   2   -109.4273912 -0.377033E-03  0.909E-02    0.94       1.0  T
   3   -109.4274270 -0.358078E-04  0.497E-02    0.96       1.0  T
   4   -109.4274490 -0.220058E-04  0.202E-02    0.94       1.0  T
   5   -109.4274566 -0.754008E-05  0.848E-03    0.95       1.6  T
   6   -109.4274583 -0.172776E-05  0.389E-03    0.95       3.6  T
   7   -109.4274586 -0.317170E-06  0.189E-03    0.95       7.3  T
   8   -109.4274586  0.989502E-10  0.102E-03    0.95      13.6  T
   9   -109.4274586 -0.243963E-07  0.493E-04    0.95      28.1  T
  10   -109.4274587 -0.327069E-08  0.229E-04    0.95      60.4  T
     SCC iter.                  ...        0 min,  0.025 sec
     gradient                   ...        0 min,  0.017 sec
 * total energy  :  -108.2201057 Eh     change       -0.2114041E-02 Eh
   gradient norm :     0.0377061 Eh/α   predicted    -0.1526099E-02 ( -27.81%)
   displ. norm   :     0.5331429 α      lambda       -0.3939747E-02
   maximum displ.:     0.2593355 α      in ANC's #3, #4, #6, ...

........................................................................
.............................. CYCLE   74 ..............................
........................................................................

 iter      E             dE          RMSdq      gap      omega  full diag
   1   -109.4309479 -0.109431E+03  0.323E-01    1.18       0.0  T
   2   -109.4325462 -0.159832E-02  0.152E-01    1.11       1.0  T
   3   -109.4326274 -0.811637E-04  0.851E-02    1.15       1.0  T
   4   -109.4327061 -0.786679E-04  0.458E-02    1.12       1.0  T
   5   -109.4327615 -0.554005E-04  0.153E-02    1.13       1.0  T
   6   -109.4327651 -0.362521E-05  0.726E-03    1.13       1.9  T
   7   -109.4327661 -0.966613E-06  0.328E-03    1.13       4.2  T
   8   -109.4327661 -0.675154E-07  0.188E-03    1.13       7.4  T
   9   -109.4327662 -0.760813E-07  0.860E-04    1.13      16.1  T
  10   -109.4327662 -0.445176E-08  0.511E-04    1.13      27.2  T
     SCC iter.                  ...        0 min,  0.025 sec
     gradient                   ...        0 min,  0.017 sec
 * total energy  :  -108.2228578 Eh     change       -0.2752028E-02 Eh
   gradient norm :     0.0433171 Eh/α   predicted    -0.2529812E-02 (  -8.07%)
   displ. norm   :     0.7450030 α      lambda       -0.3934501E-02
   maximum displ.:     0.3130259 α      in ANC's #3, #6, #4, ...

........................................................................
.............................. CYCLE   75 ..............................
........................................................................

 iter      E             dE          RMSdq      gap      omega  full diag
   1   -109.4132206 -0.109413E+03  0.643E-01    1.90       0.0  T
   2   -109.4213676 -0.814702E-02  0.306E-01    1.63       1.0  T
   3   -109.4218488 -0.481112E-03  0.162E-01    1.72       1.0  T
   4   -109.4222976 -0.448842E-03  0.877E-02    1.66       1.0  T
   5   -109.4224715 -0.173897E-03  0.294E-02    1.68       1.0  T
   6   -109.4224876 -0.160849E-04  0.163E-02    1.69       1.0  T
   7   -109.4224928 -0.524454E-05  0.624E-03    1.69       2.2  T
   8   -109.4224935 -0.693723E-06  0.315E-03    1.69       4.4  T
   9   -109.4224937 -0.132295E-06  0.141E-03    1.69       9.8  T
  10   -109.4224937 -0.127508E-07  0.899E-04    1.69      15.4  T
  11   -109.4224937 -0.161454E-07  0.305E-04    1.69      45.5  T
     SCC iter.                  ...        0 min,  0.028 sec
     gradient                   ...        0 min,  0.017 sec
 * total energy  :  -108.2258625 Eh     change       -0.3004716E-02 Eh
   gradient norm :     0.0702164 Eh/α   predicted    -0.3059150E-02 (   1.81%)
   displ. norm   :     0.6138810 α      lambda       -0.7813225E-02
   maximum displ.:     0.2236448 α      in ANC's #29, #27, #3, ...

........................................................................
.............................. CYCLE   76 ..............................
........................................................................

 iter      E             dE          RMSdq      gap      omega  full diag
   1   -109.4169366 -0.109417E+03  0.731E-01    2.25       0.0  T
   2   -109.4290443 -0.121077E-01  0.471E-01    1.78       1.0  T
   3   -109.4313403 -0.229600E-02  0.235E-01    1.75       1.0  T
   4   -109.4317403 -0.400057E-03  0.138E-01    1.63       1.0  T
   5   -109.4320198 -0.279539E-03  0.507E-02    1.67       1.0  T
   6   -109.4320815 -0.616668E-04  0.245E-02    1.68       1.0  T
   7   -109.4320912 -0.973486E-05  0.120E-02    1.68       1.2  T
   8   -109.4320940 -0.272591E-05  0.444E-03    1.68       3.1  T
   9   -109.4320941 -0.838241E-07  0.209E-03    1.68       6.6  T
  10   -109.4320941 -0.532426E-07  0.112E-03    1.68      12.3  T
  11   -109.4320941 -0.104683E-07  0.626E-04    1.68      22.2  T
  12   -109.4320941 -0.130718E-07  0.139E-04    1.68      99.5  T
     SCC iter.                  ...        0 min,  0.030 sec
     gradient                   ...        0 min,  0.017 sec
 * total energy  :  -108.2328494 Eh     change       -0.6986901E-02 Eh
   gradient norm :     0.1081930 Eh/α   predicted    -0.5378860E-02 ( -23.02%)
   displ. norm   :     0.3785063 α      lambda       -0.1597666E-01
   maximum displ.:     0.1110926 α      in ANC's #13, #17, #58, ...

........................................................................
.............................. CYCLE   77 ..............................
........................................................................

 iter      E             dE          RMSdq      gap      omega  full diag
   1   -109.4194502 -0.109419E+03  0.339E-01    1.86       0.0  T
   2   -109.4199478 -0.497671E-03  0.194E-01    1.72       1.0  T
   3   -109.4198383  0.109519E-03  0.821E-02    1.71       1.0  T
   4   -109.4200018 -0.163516E-03  0.343E-02    1.70       1.0  T
   5   -109.4200217 -0.198674E-04  0.168E-02    1.71       1.0  T
   6   -109.4200318 -0.100729E-04  0.547E-03    1.71       2.5  T
   7   -109.4200319 -0.119784E-06  0.260E-03    1.71       5.3  T
   8   -109.4200319 -0.625987E-07  0.112E-03    1.71      12.3  T
   9   -109.4200320 -0.174779E-07  0.589E-04    1.71      23.5  T
  10   -109.4200320 -0.621414E-08  0.285E-04    1.71      48.6  T
     SCC iter.                  ...        0 min,  0.025 sec
     gradient                   ...        0 min,  0.017 sec
 * total energy  :  -108.2372968 Eh     change       -0.4447405E-02 Eh
   gradient norm :     0.1155990 Eh/α   predicted    -0.9132816E-02 ( 105.35%)
   displ. norm   :     0.3815301 α      lambda       -0.1067290E-01
   maximum displ.:     0.1592902 α      in ANC's #3, #4, #6, ...

........................................................................
.............................. CYCLE   78 ..............................
........................................................................

 iter      E             dE          RMSdq      gap      omega  full diag
   1   -109.4209480 -0.109421E+03  0.243E-01    1.86       0.0  T
   2   -109.4221074 -0.115944E-02  0.184E-01    1.85       1.0  T
   3   -109.4230769 -0.969437E-03  0.824E-02    1.82       1.0  T
   4   -109.4230698  0.704567E-05  0.317E-02    1.82       1.0  T
   5   -109.4230984 -0.286024E-04  0.898E-03    1.82       1.5  T
   6   -109.4230996 -0.119723E-05  0.358E-03    1.82       3.9  T
   7   -109.4230997 -0.812544E-07  0.209E-03    1.82       6.6  T
   8   -109.4230998 -0.674713E-07  0.975E-04    1.82      14.2  T
   9   -109.4230998 -0.225874E-07  0.450E-04    1.82      30.8  T
     SCC iter.                  ...        0 min,  0.023 sec
     gradient                   ...        0 min,  0.017 sec
 * total energy  :  -108.2406624 Eh     change       -0.3365618E-02 Eh
   gradient norm :     0.0698577 Eh/α   predicted    -0.6113242E-02 (  81.64%)
   displ. norm   :     0.2613227 α      lambda       -0.6713048E-02
   maximum displ.:     0.0922648 α      in ANC's #35, #31, #58, ...

........................................................................
.............................. CYCLE   79 ..............................
........................................................................

 iter      E             dE          RMSdq      gap      omega  full diag
   1   -109.4183419 -0.109418E+03  0.210E-01    1.52       0.0  T
   2   -109.4189423 -0.600386E-03  0.123E-01    1.71       1.0  T
   3   -109.4189702 -0.279571E-04  0.679E-02    1.72       1.0  T
   4   -109.4190074 -0.371296E-04  0.280E-02    1.74       1.0  T
   5   -109.4190180 -0.106123E-04  0.120E-02    1.73       1.2  T
   6   -109.4190239 -0.586394E-05  0.408E-03    1.73       3.4  T
   7   -109.4190242 -0.359672E-06  0.158E-03    1.73       8.8  T
   8   -109.4190242 -0.105863E-07  0.810E-04    1.73      17.1  T
   9   -109.4190242 -0.618523E-08  0.449E-04    1.73      30.9  T
     SCC iter.                  ...        0 min,  0.023 sec
     gradient                   ...        0 min,  0.017 sec
 * total energy  :  -108.2431404 Eh     change       -0.2477982E-02 Eh
   gradient norm :     0.0644624 Eh/α   predicted    -0.3585741E-02 (  44.70%)
   displ. norm   :     0.4149490 α      lambda       -0.7125612E-02
   maximum displ.:     0.1415482 α      in ANC's #31, #29, #3, ...

........................................................................
.............................. CYCLE   80 ..............................
........................................................................

 iter      E             dE          RMSdq      gap      omega  full diag
   1   -109.4214496 -0.109421E+03  0.377E-01    1.73       0.0  T
   2   -109.4246362 -0.318658E-02  0.233E-01    1.50       1.0  T
   3   -109.4254363 -0.800080E-03  0.128E-01    1.47       1.0  T
   4   -109.4254656 -0.293367E-04  0.713E-02    1.43       1.0  T
   5   -109.4255451 -0.794991E-04  0.242E-02    1.44       1.0  T
   6   -109.4255585 -0.133848E-04  0.903E-03    1.44       1.5  T
   7   -109.4255586 -0.101671E-06  0.593E-03    1.45       2.3  T
   8   -109.4255593 -0.642690E-06  0.261E-03    1.45       5.3  T
   9   -109.4255594 -0.124596E-06  0.973E-04    1.45      14.2  T
  10   -109.4255594 -0.158004E-07  0.454E-04    1.45      30.5  T
     SCC iter.                  ...        0 min,  0.025 sec
     gradient                   ...        0 min,  0.017 sec
 * total energy  :  -108.2344784 Eh     change        0.8662014E-02 Eh
   gradient norm :     0.1516508 Eh/α   predicted    -0.4176264E-02 (-148.21%)
   displ. norm   :     0.3145925 α      lambda       -0.3332530E-01
   maximum displ.:     0.1008553 α      in ANC's #27, #29, #63, ...

........................................................................
.............................. CYCLE   81 ..............................
........................................................................

 iter      E             dE          RMSdq      gap      omega  full diag
   1   -109.4544320 -0.109454E+03  0.310E-01    2.01       0.0  T
   2   -109.4570211 -0.258910E-02  0.204E-01    2.02       1.0  T
   3   -109.4573094 -0.288279E-03  0.124E-01    2.04       1.0  T
   4   -109.4572728  0.365774E-04  0.654E-02    2.06       1.0  T
   5   -109.4573245 -0.516320E-04  0.290E-02    2.04       1.0  T
   6   -109.4573588 -0.343492E-04  0.920E-03    2.05       1.5  T
   7   -109.4573592 -0.377299E-06  0.453E-03    2.04       3.1  T
   8   -109.4573594 -0.200275E-06  0.176E-03    2.04       7.9  T
   9   -109.4573594 -0.116431E-07  0.106E-03    2.04      13.1  T
  10   -109.4573594 -0.355417E-07  0.374E-04    2.04      37.1  T
  11   -109.4573594 -0.199360E-08  0.173E-04    2.04      80.2  T
     SCC iter.                  ...        0 min,  0.028 sec
     gradient                   ...        0 min,  0.018 sec
 * total energy  :  -108.2420115 Eh     change       -0.7533152E-02 Eh
   gradient norm :     0.1266974 Eh/α   predicted    -0.1831172E-01 ( 143.08%)
   displ. norm   :     0.5118946 α      lambda       -0.2218219E-01
   maximum displ.:     0.2405533 α      in ANC's #4, #28, #13, ...

........................................................................
.............................. CYCLE   82 ..............................
........................................................................

 iter      E             dE          RMSdq      gap      omega  full diag
   1   -109.3807627 -0.109381E+03  0.469E-01    1.34       0.0  T
   2   -109.3850383 -0.427564E-02  0.316E-01    1.66       1.0  T
   3   -109.3873939 -0.235561E-02  0.159E-01    1.66       1.0  T
   4   -109.3874498 -0.558577E-04  0.724E-02    1.70       1.0  T
   5   -109.3875922 -0.142415E-03  0.193E-02    1.69       1.0  T
   6   -109.3876035 -0.112813E-04  0.795E-03    1.69       1.7  T
   7   -109.3876046 -0.111933E-05  0.458E-03    1.68       3.0  T
   8   -109.3876049 -0.252963E-06  0.234E-03    1.68       5.9  T
   9   -109.3876050 -0.950135E-07  0.103E-03    1.68      13.4  T
  10   -109.3876050 -0.148322E-07  0.483E-04    1.68      28.7  T
  11   -109.3876050 -0.384101E-08  0.288E-04    1.68      48.1  T
     SCC iter.                  ...        0 min,  0.028 sec
     gradient                   ...        0 min,  0.017 sec
 * total energy  :  -108.2377981 Eh     change        0.4213467E-02 Eh
   gradient norm :     0.1485491 Eh/α   predicted    -0.1399736E-01 (-432.21%)
   displ. norm   :     0.2521360 α      lambda       -0.1730033E-01
   maximum displ.:     0.0887988 α      in ANC's #17, #15, #28, ...

........................................................................
.............................. CYCLE   83 ..............................
........................................................................

 iter      E             dE          RMSdq      gap      omega  full diag
   1   -109.4320238 -0.109432E+03  0.256E-01    2.06       0.0  T
   2   -109.4332657 -0.124193E-02  0.161E-01    1.87       1.0  T
   3   -109.4337867 -0.520949E-03  0.828E-02    1.86       1.0  T
   4   -109.4338160 -0.293379E-04  0.357E-02    1.83       1.0  T
   5   -109.4338432 -0.272456E-04  0.120E-02    1.84       1.2  T
   6   -109.4338470 -0.375507E-05  0.500E-03    1.84       2.8  T
   7   -109.4338474 -0.404557E-06  0.304E-03    1.84       4.6  T
   8   -109.4338476 -0.154082E-06  0.140E-03    1.84       9.9  T
   9   -109.4338476 -0.180751E-07  0.618E-04    1.84      22.4  T
  10   -109.4338476 -0.574227E-08  0.305E-04    1.84      45.5  T
     SCC iter.                  ...        0 min,  0.025 sec
     gradient                   ...        0 min,  0.017 sec
 * total energy  :  -108.2477717 Eh     change       -0.9973624E-02 Eh
   gradient norm :     0.0276457 Eh/α   predicted    -0.9200115E-02 (  -7.76%)
   displ. norm   :     0.2737325 α      lambda       -0.2243235E-02
   maximum displ.:     0.1345891 α      in ANC's #3, #5, #15, ...

........................................................................
.............................. CYCLE   84 ..............................
........................................................................

 iter      E             dE          RMSdq      gap      omega  full diag
   1   -109.4287802 -0.109429E+03  0.140E-01    1.93       0.0  T
   2   -109.4289980 -0.217820E-03  0.916E-02    1.87       1.0  T
   3   -109.4291151 -0.117127E-03  0.493E-02    1.86       1.0  T
   4   -109.4291354 -0.202721E-04  0.154E-02    1.85       1.0  T
   5   -109.4291413 -0.587166E-05  0.566E-03    1.85       2.5  T
   6   -109.4291420 -0.712956E-06  0.234E-03    1.86       5.9  T
   7   -109.4291420 -0.513894E-07  0.134E-03    1.86      10.4  T
   8   -109.4291421 -0.292961E-07  0.663E-04    1.86      20.9  T
   9   -109.4291421 -0.766215E-08  0.306E-04    1.86      45.3  T
     SCC iter.                  ...        0 min,  0.023 sec
     gradient                   ...        0 min,  0.017 sec
 * total energy  :  -108.2488921 Eh     change       -0.1120439E-02 Eh
   gradient norm :     0.0381146 Eh/α   predicted    -0.1205664E-02 (   7.61%)
   displ. norm   :     0.3402766 α      lambda       -0.2303114E-02
   maximum displ.:     0.1640696 α      in ANC's #15, #17, #9, ...

........................................................................
.............................. CYCLE   85 ..............................
........................................................................

 iter      E             dE          RMSdq      gap      omega  full diag
   1   -109.4418790 -0.109442E+03  0.183E-01    1.86       0.0  T
   2   -109.4421702 -0.291152E-03  0.105E-01    1.85       1.0  T
   3   -109.4422036 -0.334668E-04  0.568E-02    1.85       1.0  T
   4   -109.4422349 -0.313056E-04  0.155E-02    1.85       1.0  T
   5   -109.4422378 -0.283701E-05  0.641E-03    1.85       2.2  T
   6   -109.4422387 -0.930773E-06  0.330E-03    1.85       4.2  T
   7   -109.4422390 -0.247960E-06  0.155E-03    1.85       9.0  T
   8   -109.4422390 -0.309847E-07  0.718E-04    1.85      19.3  T
   9   -109.4422390 -0.296093E-08  0.424E-04    1.85      32.7  T
     SCC iter.                  ...        0 min,  0.023 sec
     gradient                   ...        0 min,  0.017 sec
 * total energy  :  -108.2496981 Eh     change       -0.8059338E-03 Eh
   gradient norm :     0.0394950 Eh/α   predicted    -0.1284897E-02 (  59.43%)
   displ. norm   :     0.3169893 α      lambda       -0.2544987E-02
   maximum displ.:     0.1597432 α      in ANC's #3, #4, #28, ...

........................................................................
.............................. CYCLE   86 ..............................
........................................................................

 iter      E             dE          RMSdq      gap      omega  full diag
   1   -109.4416523 -0.109442E+03  0.166E-01    1.92       0.0  T
   2   -109.4418129 -0.160604E-03  0.103E-01    1.93       1.0  T
   3   -109.4418422 -0.293358E-04  0.577E-02    1.90       1.0  T
   4   -109.4419081 -0.658549E-04  0.122E-02    1.91       1.1  T
   5   -109.4419142 -0.617953E-05  0.424E-03    1.91       3.3  T
   6   -109.4419144 -0.118681E-06  0.205E-03    1.91       6.8  T
   7   -109.4419144 -0.848518E-07  0.113E-03    1.91      12.2  T
   8   -109.4419145 -0.317640E-07  0.451E-04    1.91      30.8  T
   9   -109.4419145 -0.135311E-08  0.198E-04    1.91      70.0  T
     SCC iter.                  ...        0 min,  0.022 sec
     gradient                   ...        0 min,  0.018 sec
 * total energy  :  -108.2508492 Eh     change       -0.1151140E-02 Eh
   gradient norm :     0.0381179 Eh/α   predicted    -0.1400364E-02 (  21.65%)
   displ. norm   :     0.3842715 α      lambda       -0.2586383E-02
   maximum displ.:     0.1717573 α      in ANC's #3, #15, #6, ...

........................................................................
.............................. CYCLE   87 ..............................
........................................................................

 iter      E             dE          RMSdq      gap      omega  full diag
   1   -109.4338744 -0.109434E+03  0.152E-01    1.84       0.0  T
   2   -109.4339454 -0.710191E-04  0.906E-02    1.86       1.0  T
   3   -109.4339124  0.329838E-04  0.478E-02    1.88       1.0  T
   4   -109.4339753 -0.628998E-04  0.118E-02    1.88       1.2  T
   5   -109.4339803 -0.501233E-05  0.465E-03    1.88       3.0  T
   6   -109.4339805 -0.215992E-06  0.233E-03    1.88       5.9  T
   7   -109.4339807 -0.167478E-06  0.105E-03    1.88      13.2  T
   8   -109.4339807 -0.192523E-07  0.456E-04    1.88      30.4  T
   9   -109.4339807 -0.175861E-08  0.269E-04    1.88      51.5  T
     SCC iter.                  ...        0 min,  0.023 sec
     gradient                   ...        0 min,  0.017 sec
 * total energy  :  -108.2518617 Eh     change       -0.1012490E-02 Eh
   gradient norm :     0.0272036 Eh/α   predicted    -0.1484152E-02 (  46.58%)
   displ. norm   :     0.2844328 α      lambda       -0.1673740E-02
   maximum displ.:     0.0973093 α      in ANC's #3, #28, #15, ...

........................................................................
.............................. CYCLE   88 ..............................
........................................................................

 iter      E             dE          RMSdq      gap      omega  full diag
   1   -109.4288284 -0.109429E+03  0.118E-01    1.85       0.0  T
   2   -109.4288904 -0.620246E-04  0.667E-02    1.90       1.0  T
   3   -109.4288785  0.119698E-04  0.374E-02    1.89       1.0  T
   4   -109.4289132 -0.347115E-04  0.121E-02    1.90       1.1  T
   5   -109.4289162 -0.302053E-05  0.583E-03    1.89       2.4  T
   6   -109.4289169 -0.702985E-06  0.213E-03    1.89       6.5  T
   7   -109.4289170 -0.112232E-06  0.924E-04    1.89      15.0  T
   8   -109.4289170 -0.135391E-07  0.407E-04    1.89      34.1  T
     SCC iter.                  ...        0 min,  0.020 sec
     gradient                   ...        0 min,  0.017 sec
 * total energy  :  -108.2526764 Eh     change       -0.8147394E-03 Eh
   gradient norm :     0.0335130 Eh/α   predicted    -0.9045758E-03 (  11.03%)
   displ. norm   :     0.3424576 α      lambda       -0.1860554E-02
   maximum displ.:     0.1807594 α      in ANC's #3, #2, #16, ...

........................................................................
.............................. CYCLE   89 ..............................
........................................................................

 iter      E             dE          RMSdq      gap      omega  full diag
   1   -109.4370757 -0.109437E+03  0.116E-01    2.16       0.0  T
   2   -109.4371799 -0.104190E-03  0.667E-02    2.08       1.0  T
   3   -109.4371820 -0.206249E-05  0.367E-02    2.09       1.0  T
   4   -109.4372054 -0.233814E-04  0.119E-02    2.07       1.2  T
   5   -109.4372081 -0.272126E-05  0.559E-03    2.08       2.5  T
   6   -109.4372090 -0.908105E-06  0.191E-03    2.08       7.3  T
   7   -109.4372091 -0.732464E-07  0.101E-03    2.08      13.8  T
   8   -109.4372091 -0.186679E-07  0.495E-04    2.08      28.0  T
   9   -109.4372091 -0.338598E-08  0.240E-04    2.08      57.7  T
     SCC iter.                  ...        0 min,  0.022 sec
     gradient                   ...        0 min,  0.017 sec
 * total energy  :  -108.2530193 Eh     change       -0.3429245E-03 Eh
   gradient norm :     0.0416800 Eh/α   predicted    -0.1039387E-02 ( 203.09%)
   displ. norm   :     0.2800576 α      lambda       -0.1876207E-02
   maximum displ.:     0.1126574 α      in ANC's #3, #15, #21, ...

........................................................................
.............................. CYCLE   90 ..............................
........................................................................

 iter      E             dE          RMSdq      gap      omega  full diag
   1   -109.4418417 -0.109442E+03  0.126E-01    1.97       0.0  T
   2   -109.4418881 -0.463910E-04  0.730E-02    2.01       1.0  T
   3   -109.4418736  0.144870E-04  0.316E-02    2.00       1.0  T
   4   -109.4418981 -0.244202E-04  0.839E-03    2.01       1.7  T
   5   -109.4418998 -0.174711E-05  0.432E-03    2.01       3.2  T
   6   -109.4419002 -0.433521E-06  0.149E-03    2.00       9.3  T
   7   -109.4419003 -0.338309E-07  0.804E-04    2.01      17.3  T
   8   -109.4419003 -0.136161E-07  0.403E-04    2.01      34.4  T
     SCC iter.                  ...        0 min,  0.020 sec
     gradient                   ...        0 min,  0.017 sec
 * total energy  :  -108.2540683 Eh     change       -0.1048910E-02 Eh
   gradient norm :     0.0160074 Eh/α   predicted    -0.1011684E-02 (  -3.55%)
   displ. norm   :     0.2739054 α      lambda       -0.7672011E-03
   maximum displ.:     0.1436575 α      in ANC's #3, #2, #5, ...

........................................................................
.............................. CYCLE   91 ..............................
........................................................................

 iter      E             dE          RMSdq      gap      omega  full diag
   1   -109.4385923 -0.109439E+03  0.941E-02    1.96       0.0  T
   2   -109.4386132 -0.209605E-04  0.542E-02    1.99       1.0  T
   3   -109.4386040  0.928341E-05  0.224E-02    1.99       1.0  T
   4   -109.4386181 -0.140888E-04  0.596E-03    1.99       2.3  T
   5   -109.4386185 -0.481207E-06  0.359E-03    1.99       3.9  T
   6   -109.4386190 -0.437150E-06  0.111E-03    1.99      12.5  T
   7   -109.4386190 -0.119697E-07  0.510E-04    1.99      27.2  T
   8   -109.4386190 -0.276037E-08  0.270E-04    1.99      51.3  T
     SCC iter.                  ...        0 min,  0.020 sec
     gradient                   ...        0 min,  0.017 sec
 * total energy  :  -108.2545735 Eh     change       -0.5052436E-03 Eh
   gradient norm :     0.0185497 Eh/α   predicted    -0.4123841E-03 ( -18.38%)
   displ. norm   :     0.3753065 α      lambda       -0.8765509E-03
   maximum displ.:     0.1917898 α      in ANC's #3, #2, #28, ...

........................................................................
.............................. CYCLE   92 ..............................
........................................................................

 iter      E             dE          RMSdq      gap      omega  full diag
   1   -109.4407648 -0.109441E+03  0.111E-01    2.05       0.0  T
   2   -109.4407873 -0.225389E-04  0.644E-02    2.05       1.0  T
   3   -109.4407513  0.360826E-04  0.365E-02    2.05       1.0  T
   4   -109.4408053 -0.540239E-04  0.732E-03    2.05       1.9  T
   5   -109.4408058 -0.549327E-06  0.414E-03    2.05       3.3  T
   6   -109.4408062 -0.343013E-06  0.151E-03    2.05       9.2  T
   7   -109.4408063 -0.765344E-07  0.658E-04    2.05      21.1  T
   8   -109.4408063 -0.536347E-08  0.310E-04    2.05      44.8  T
     SCC iter.                  ...        0 min,  0.020 sec
     gradient                   ...        0 min,  0.017 sec
 * total energy  :  -108.2551447 Eh     change       -0.5711982E-03 Eh
   gradient norm :     0.0115927 Eh/α   predicted    -0.5000110E-03 ( -12.46%)
   displ. norm   :     0.4579689 α      lambda       -0.7683734E-03
   maximum displ.:     0.2546529 α      in ANC's #3, #2, #16, ...
 * RMSD in coord.:     0.8148633 α      energy gain  -0.4090406E-01 Eh

generating ANC from exact Hessian ...
Using Lindh-Hessian (1995)
 Shifting diagonal of input Hessian by    9.8886773381047632E-003
 Lowest  eigenvalues of input Hessian
    0.000000    0.000000    0.000000    0.000000    0.000000    0.000000
    0.010000    0.010057    0.010124    0.010362    0.010791    0.010970
    0.011396    0.011634    0.011875    0.011991    0.012835    0.012969
 Highest eigenvalues
    2.215543    2.361161    2.386547    2.508763    3.102450    3.142283


........................................................................
.............................. CYCLE   93 ..............................
........................................................................

 iter      E             dE          RMSdq      gap      omega  full diag
   1   -109.4363675 -0.109436E+03  0.135E-01    2.05       0.0  T
   2   -109.4364172 -0.496613E-04  0.753E-02    2.05       1.0  T
   3   -109.4364101  0.709537E-05  0.236E-02    2.06       1.0  T
   4   -109.4364174 -0.732263E-05  0.108E-02    2.05       1.3  T
   5   -109.4364214 -0.396923E-05  0.432E-03    2.05       3.2  T
   6   -109.4364219 -0.462245E-06  0.172E-03    2.05       8.1  T
   7   -109.4364219 -0.434347E-07  0.763E-04    2.05      18.2  T
   8   -109.4364219 -0.101899E-07  0.448E-04    2.05      30.9  T
     SCC iter.                  ...        0 min,  0.020 sec
     gradient                   ...        0 min,  0.017 sec
 * total energy  :  -108.2555784 Eh     change       -0.4337093E-03 Eh
   gradient norm :     0.0151083 Eh/α   predicted     0.0000000E+00 (-100.00%)
   displ. norm   :     0.1113484 α      lambda       -0.5640816E-03
   maximum displ.:     0.0411864 α      in ANC's #25, #3, #9, ...

........................................................................
.............................. CYCLE   94 ..............................
........................................................................

 iter      E             dE          RMSdq      gap      omega  full diag
   1   -109.4425286 -0.109443E+03  0.580E-02    2.07       0.0  T
   2   -109.4425336 -0.500524E-05  0.335E-02    2.07       1.0  T
   3   -109.4425288  0.474099E-05  0.144E-02    2.07       1.0  T
   4   -109.4425350 -0.620896E-05  0.335E-03    2.07       4.1  T
   5   -109.4425354 -0.365047E-06  0.157E-03    2.07       8.8  T
   6   -109.4425354 -0.356354E-07  0.709E-04    2.07      19.6  T
   7   -109.4425354 -0.918355E-08  0.377E-04    2.07      36.8  T
     SCC iter.                  ...        0 min,  0.018 sec
     gradient                   ...        0 min,  0.017 sec
 * total energy  :  -108.2559459 Eh     change       -0.3675008E-03 Eh
   gradient norm :     0.0053315 Eh/α   predicted    -0.2855440E-03 ( -22.30%)
   displ. norm   :     0.2478692 α      lambda       -0.6872591E-03
   maximum displ.:     0.1195307 α      in ANC's #25, #18, #3, ...

........................................................................
.............................. CYCLE   95 ..............................
........................................................................

 iter      E             dE          RMSdq      gap      omega  full diag
   1   -109.4472548 -0.109447E+03  0.132E-01    2.08       0.0  T
   2   -109.4472820 -0.272365E-04  0.761E-02    2.08       1.0  T
   3   -109.4472610  0.210105E-04  0.285E-02    2.07       1.0  T
   4   -109.4472908 -0.298090E-04  0.801E-03    2.07       1.7  T
   5   -109.4472921 -0.128811E-05  0.440E-03    2.07       3.1  T
   6   -109.4472924 -0.303169E-06  0.158E-03    2.07       8.8  T
   7   -109.4472924 -0.544609E-07  0.835E-04    2.07      16.6  T
   8   -109.4472924 -0.165338E-07  0.294E-04    2.07      47.2  T
     SCC iter.                  ...        0 min,  0.020 sec
     gradient                   ...        0 min,  0.017 sec
 * total energy  :  -108.2555422 Eh     change        0.4037300E-03 Eh
   gradient norm :     0.0203721 Eh/α   predicted    -0.3647465E-03 (-190.34%)
   displ. norm   :     0.1343267 α      lambda       -0.1408373E-02
   maximum displ.:     0.0642876 α      in ANC's #7, #9, #20, ...

........................................................................
.............................. CYCLE   96 ..............................
........................................................................

 iter      E             dE          RMSdq      gap      omega  full diag
   1   -109.4468792 -0.109447E+03  0.967E-02    2.07       0.0  T
   2   -109.4468942 -0.150555E-04  0.590E-02    2.06       1.0  T
   3   -109.4468672  0.270337E-04  0.299E-02    2.07       1.0  T
   4   -109.4469035 -0.363121E-04  0.491E-03    2.07       2.8  T
   5   -109.4469041 -0.628628E-06  0.256E-03    2.07       5.4  T
   6   -109.4469042 -0.805388E-07  0.119E-03    2.07      11.7  T
   7   -109.4469043 -0.499197E-07  0.408E-04    2.07      34.0  T
   8   -109.4469043 -0.222019E-08  0.154E-04    2.07      90.0  T
     SCC iter.                  ...        0 min,  0.021 sec
     gradient                   ...        0 min,  0.018 sec
 * total energy  :  -108.2563391 Eh     change       -0.7969369E-03 Eh
   gradient norm :     0.0072479 Eh/α   predicted    -0.7168933E-03 ( -10.04%)
   displ. norm   :     0.1558801 α      lambda       -0.2222424E-03
   maximum displ.:     0.0695815 α      in ANC's #3, #7, #25, ...

........................................................................
.............................. CYCLE   97 ..............................
........................................................................

 iter      E             dE          RMSdq      gap      omega  full diag
   1   -109.4444646 -0.109444E+03  0.688E-02    2.06       0.0  T
   2   -109.4444680 -0.333057E-05  0.394E-02    2.05       1.0  T
   3   -109.4444591  0.888034E-05  0.148E-02    2.06       1.0  T
   4   -109.4444699 -0.107939E-04  0.310E-03    2.05       4.5  T
   5   -109.4444700 -0.108405E-06  0.128E-03    2.06      10.8  T
   6   -109.4444700 -0.333637E-07  0.512E-04    2.06      27.1  T
   7   -109.4444700 -0.750484E-08  0.252E-04    2.06      55.0  T
     SCC iter.                  ...        0 min,  0.018 sec
     gradient                   ...        0 min,  0.018 sec
 * total energy  :  -108.2565188 Eh     change       -0.1797170E-03 Eh
   gradient norm :     0.0054816 Eh/α   predicted    -0.1138219E-03 ( -36.67%)
   displ. norm   :     0.4953226 α      lambda       -0.5769800E-03
   maximum displ.:     0.2244005 α      in ANC's #3, #7, #9, ...

........................................................................
.............................. CYCLE   98 ..............................
........................................................................

 iter      E             dE          RMSdq      gap      omega  full diag
   1   -109.4334916 -0.109433E+03  0.212E-01    2.03       0.0  T
   2   -109.4335360 -0.444175E-04  0.123E-01    2.02       1.0  T
   3   -109.4334316  0.104415E-03  0.534E-02    2.03       1.0  T
   4   -109.4335634 -0.131837E-03  0.987E-03    2.02       1.4  T
   5   -109.4335649 -0.144197E-05  0.460E-03    2.02       3.0  T
   6   -109.4335653 -0.402123E-06  0.188E-03    2.02       7.4  T
   7   -109.4335654 -0.106420E-06  0.839E-04    2.02      16.5  T
   8   -109.4335654 -0.145661E-07  0.395E-04    2.02      35.1  T
     SCC iter.                  ...        0 min,  0.020 sec
     gradient                   ...        0 min,  0.018 sec
 * total energy  :  -108.2565901 Eh     change       -0.7125788E-04 Eh
   gradient norm :     0.0215119 Eh/α   predicted    -0.3592726E-03 ( 404.19%)
   displ. norm   :     0.1511407 α      lambda       -0.7373440E-03
   maximum displ.:     0.0594667 α      in ANC's #3, #25, #6, ...

........................................................................
.............................. CYCLE   99 ..............................
........................................................................

 iter      E             dE          RMSdq      gap      omega  full diag
   1   -109.4375197 -0.109438E+03  0.727E-02    2.02       0.0  T
   2   -109.4375458 -0.260548E-04  0.465E-02    2.03       1.0  T
   3   -109.4375587 -0.128893E-04  0.275E-02    2.02       1.0  T
   4   -109.4375732 -0.145595E-04  0.427E-03    2.02       3.2  T
   5   -109.4375736 -0.412672E-06  0.198E-03    2.02       7.0  T
   6   -109.4375737 -0.426794E-07  0.752E-04    2.02      18.4  T
   7   -109.4375737 -0.100658E-07  0.412E-04    2.02      33.7  T
     SCC iter.                  ...        0 min,  0.018 sec
     gradient                   ...        0 min,  0.017 sec
 * total energy  :  -108.2568883 Eh     change       -0.2981961E-03 Eh
   gradient norm :     0.0119827 Eh/α   predicted    -0.3770998E-03 (  26.46%)
   displ. norm   :     0.0603187 α      lambda       -0.2743597E-03
   maximum displ.:     0.0276559 α      in ANC's #25, #3, #20, ...

........................................................................
.............................. CYCLE  100 ..............................
........................................................................

 iter      E             dE          RMSdq      gap      omega  full diag
   1   -109.4439101 -0.109444E+03  0.323E-02    2.04       0.0  T
   2   -109.4439140 -0.388950E-05  0.191E-02    2.03       1.0  T
   3   -109.4439127  0.127357E-05  0.103E-02    2.04       1.3  T
   4   -109.4439155 -0.281544E-05  0.237E-03    2.03       5.8  T
   5   -109.4439157 -0.195169E-06  0.937E-04    2.03      14.8  T
   6   -109.4439157 -0.277052E-08  0.501E-04    2.03      27.7  T
     SCC iter.                  ...        0 min,  0.015 sec
     gradient                   ...        0 min,  0.017 sec
 * total energy  :  -108.2570468 Eh     change       -0.1585350E-03 Eh
   gradient norm :     0.0042099 Eh/α   predicted    -0.1376797E-03 ( -13.15%)
   displ. norm   :     0.3322461 α      lambda       -0.3032220E-03
   maximum displ.:     0.1856269 α      in ANC's #3, #7, #1, ...

........................................................................
.............................. CYCLE  101 ..............................
........................................................................

 iter      E             dE          RMSdq      gap      omega  full diag
   1   -109.4422398 -0.109442E+03  0.121E-01    2.03       0.0  T
   2   -109.4422476 -0.773716E-05  0.689E-02    2.03       1.0  T
   3   -109.4422424  0.520012E-05  0.134E-02    2.03       1.0  T
   4   -109.4422491 -0.676909E-05  0.527E-03    2.03       2.6  T
   5   -109.4422497 -0.609582E-06  0.210E-03    2.03       6.6  T
   6   -109.4422498 -0.956446E-07  0.101E-03    2.03      13.8  T
   7   -109.4422499 -0.268147E-07  0.448E-04    2.03      31.0  T
   8   -109.4422499 -0.405669E-08  0.199E-04    2.03      69.8  T
     SCC iter.                  ...        0 min,  0.020 sec
     gradient                   ...        0 min,  0.017 sec
 * total energy  :  -108.2572878 Eh     change       -0.2409609E-03 Eh
   gradient norm :     0.0068808 Eh/α   predicted    -0.1683473E-03 ( -30.13%)
   displ. norm   :     0.5461932 α      lambda       -0.4188548E-03
   maximum displ.:     0.3093391 α      in ANC's #3, #1, #7, ...

........................................................................
.............................. CYCLE  102 ..............................
........................................................................

 iter      E             dE          RMSdq      gap      omega  full diag
   1   -109.4374129 -0.109437E+03  0.172E-01    2.01       0.0  T
   2   -109.4374356 -0.227748E-04  0.979E-02    2.02       1.0  T
   3   -109.4374341  0.157030E-05  0.156E-02    2.02       1.0  T
   4   -109.4374377 -0.358025E-05  0.778E-03    2.02       1.8  T
   5   -109.4374390 -0.130551E-05  0.384E-03    2.02       3.6  T
   6   -109.4374394 -0.445004E-06  0.142E-03    2.02       9.7  T
   7   -109.4374395 -0.465367E-07  0.501E-04    2.02      27.7  T
   8   -109.4374395 -0.168774E-08  0.272E-04    2.02      51.0  T
     SCC iter.                  ...        0 min,  0.020 sec
     gradient                   ...        0 min,  0.018 sec
 * total energy  :  -108.2575746 Eh     change       -0.2867704E-03 Eh
   gradient norm :     0.0123252 Eh/α   predicted    -0.2719102E-03 (  -5.18%)
   displ. norm   :     0.3650698 α      lambda       -0.3311429E-03
   maximum displ.:     0.2235976 α      in ANC's #3, #1, #16, ...

........................................................................
.............................. CYCLE  103 ..............................
........................................................................

 iter      E             dE          RMSdq      gap      omega  full diag
   1   -109.4398339 -0.109440E+03  0.956E-02    2.02       0.0  T
   2   -109.4398499 -0.159851E-04  0.533E-02    2.02       1.0  T
   3   -109.4398392  0.106428E-04  0.206E-02    2.02       1.0  T
   4   -109.4398536 -0.143760E-04  0.561E-03    2.02       2.5  T
   5   -109.4398542 -0.604343E-06  0.249E-03    2.02       5.6  T
   6   -109.4398544 -0.134082E-06  0.114E-03    2.02      12.2  T
   7   -109.4398544 -0.321980E-07  0.510E-04    2.02      27.2  T
   8   -109.4398544 -0.740194E-08  0.215E-04    2.02      64.4  T
     SCC iter.                  ...        0 min,  0.020 sec
     gradient                   ...        0 min,  0.017 sec
 * total energy  :  -108.2578315 Eh     change       -0.2569135E-03 Eh
   gradient norm :     0.0075635 Eh/α   predicted    -0.1876396E-03 ( -26.96%)
   displ. norm   :     0.4309829 α      lambda       -0.3163827E-03
   maximum displ.:     0.2728113 α      in ANC's #3, #1, #16, ...

........................................................................
.............................. CYCLE  104 ..............................
........................................................................

 iter      E             dE          RMSdq      gap      omega  full diag
   1   -109.4419521 -0.109442E+03  0.114E-01    2.03       0.0  T
   2   -109.4419685 -0.163157E-04  0.635E-02    2.03       1.0  T
   3   -109.4419575  0.109247E-04  0.207E-02    2.03       1.0  T
   4   -109.4419719 -0.143768E-04  0.655E-03    2.03       2.1  T
   5   -109.4419727 -0.758296E-06  0.293E-03    2.03       4.7  T
   6   -109.4419729 -0.196853E-06  0.128E-03    2.03      10.9  T
   7   -109.4419729 -0.424138E-07  0.571E-04    2.03      24.3  T
   8   -109.4419729 -0.811782E-08  0.258E-04    2.03      53.7  T
     SCC iter.                  ...        0 min,  0.020 sec
     gradient                   ...        0 min,  0.017 sec
 * total energy  :  -108.2580664 Eh     change       -0.2349637E-03 Eh
   gradient norm :     0.0077027 Eh/α   predicted    -0.1875754E-03 ( -20.17%)
   displ. norm   :     0.4588611 α      lambda       -0.2936719E-03
   maximum displ.:     0.2994730 α      in ANC's #3, #1, #16, ...

........................................................................
.............................. CYCLE  105 ..............................
........................................................................

 iter      E             dE          RMSdq      gap      omega  full diag
   1   -109.4454226 -0.109445E+03  0.110E-01    2.03       0.0  T
   2   -109.4454402 -0.175771E-04  0.599E-02    2.03       1.0  T
   3   -109.4454356  0.457174E-05  0.182E-02    2.04       1.0  T
   4   -109.4454428 -0.723833E-05  0.684E-03    2.03       2.0  T
   5   -109.4454433 -0.462775E-06  0.373E-03    2.03       3.7  T
   6   -109.4454438 -0.496372E-06  0.103E-03    2.03      13.5  T
   7   -109.4454438 -0.180265E-07  0.511E-04    2.03      27.1  T
   8   -109.4454438 -0.463454E-08  0.275E-04    2.03      50.5  T
     SCC iter.                  ...        0 min,  0.020 sec
     gradient                   ...        0 min,  0.017 sec
 * total energy  :  -108.2582403 Eh     change       -0.1739048E-03 Eh
   gradient norm :     0.0088546 Eh/α   predicted    -0.1777537E-03 (   2.21%)
   displ. norm   :     0.6139459 α      lambda       -0.3231771E-03
   maximum displ.:     0.3885833 α      in ANC's #3, #1, #16, ...

........................................................................
.............................. CYCLE  106 ..............................
........................................................................

 iter      E             dE          RMSdq      gap      omega  full diag
   1   -109.4355913 -0.109436E+03  0.171E-01    2.00       0.0  T
   2   -109.4356109 -0.196293E-04  0.959E-02    2.01       1.0  T
   3   -109.4356075  0.343572E-05  0.183E-02    2.01       1.0  T
   4   -109.4356140 -0.649014E-05  0.807E-03    2.01       1.7  T
   5   -109.4356151 -0.109559E-05  0.337E-03    2.01       4.1  T
   6   -109.4356154 -0.328019E-06  0.138E-03    2.01      10.0  T
   7   -109.4356155 -0.456324E-07  0.655E-04    2.01      21.2  T
   8   -109.4356155 -0.570311E-08  0.351E-04    2.01      39.5  T
     SCC iter.                  ...        0 min,  0.020 sec
     gradient                   ...        0 min,  0.017 sec
 * total energy  :  -108.2583569 Eh     change       -0.1165273E-03 Eh
   gradient norm :     0.0136538 Eh/α   predicted    -0.2225008E-03 (  90.94%)
   displ. norm   :     0.1551222 α      lambda       -0.3448727E-03
   maximum displ.:     0.0688706 α      in ANC's #6, #13, #1, ...

........................................................................
.............................. CYCLE  107 ..............................
........................................................................

 iter      E             dE          RMSdq      gap      omega  full diag
   1   -109.4464176 -0.109446E+03  0.486E-02    2.03       0.0  T
   2   -109.4464248 -0.719902E-05  0.280E-02    2.02       1.0  T
   3   -109.4464202  0.461425E-05  0.149E-02    2.03       1.0  T
   4   -109.4464267 -0.655961E-05  0.416E-03    2.02       3.3  T
   5   -109.4464273 -0.577389E-06  0.166E-03    2.02       8.4  T
   6   -109.4464273 -0.367319E-07  0.880E-04    2.02      15.8  T
   7   -109.4464274 -0.120993E-07  0.376E-04    2.02      36.9  T
     SCC iter.                  ...        0 min,  0.018 sec
     gradient                   ...        0 min,  0.018 sec
 * total energy  :  -108.2584974 Eh     change       -0.1405206E-03 Eh
   gradient norm :     0.0127212 Eh/α   predicted    -0.1765841E-03 (  25.66%)
   displ. norm   :     0.1913803 α      lambda       -0.2694539E-03
   maximum displ.:     0.1229690 α      in ANC's #3, #1, #14, ...

........................................................................
.............................. CYCLE  108 ..............................
........................................................................

 iter      E             dE          RMSdq      gap      omega  full diag
   1   -109.4477885 -0.109448E+03  0.483E-02    2.02       0.0  T
   2   -109.4477947 -0.613196E-05  0.266E-02    2.02       1.0  T
   3   -109.4477920  0.261597E-05  0.130E-02    2.02       1.1  T
   4   -109.4477961 -0.401883E-05  0.446E-03    2.02       3.1  T
   5   -109.4477967 -0.609349E-06  0.181E-03    2.02       7.7  T
   6   -109.4477967 -0.447404E-07  0.619E-04    2.02      22.4  T
   7   -109.4477967 -0.126169E-07  0.255E-04    2.02      54.4  T
     SCC iter.                  ...        0 min,  0.018 sec
     gradient                   ...        0 min,  0.018 sec
 * total energy  :  -108.2586677 Eh     change       -0.1702684E-03 Eh
   gradient norm :     0.0070891 Eh/α   predicted    -0.1396626E-03 ( -17.98%)
   displ. norm   :     0.4410663 α      lambda       -0.2584978E-03
   maximum displ.:     0.2906731 α      in ANC's #3, #1, #16, ...

........................................................................
.............................. CYCLE  109 ..............................
........................................................................

 iter      E             dE          RMSdq      gap      omega  full diag
   1   -109.4439603 -0.109444E+03  0.108E-01    2.01       0.0  T
   2   -109.4439744 -0.140438E-04  0.594E-02    2.02       1.0  T
   3   -109.4439565  0.178231E-04  0.250E-02    2.02       1.0  T
   4   -109.4439797 -0.231688E-04  0.767E-03    2.02       1.8  T
   5   -109.4439806 -0.912677E-06  0.398E-03    2.02       3.5  T
   6   -109.4439810 -0.426379E-06  0.108E-03    2.02      12.8  T
   7   -109.4439811 -0.349167E-07  0.471E-04    2.02      29.4  T
   8   -109.4439811 -0.276219E-08  0.227E-04    2.02      61.0  T
     SCC iter.                  ...        0 min,  0.020 sec
     gradient                   ...        0 min,  0.017 sec
 * total energy  :  -108.2588610 Eh     change       -0.1933250E-03 Eh
   gradient norm :     0.0115604 Eh/α   predicted    -0.1543970E-03 ( -20.14%)
   displ. norm   :     0.5674675 α      lambda       -0.3365384E-03
   maximum displ.:     0.3617246 α      in ANC's #3, #1, #13, ...

........................................................................
.............................. CYCLE  110 ..............................
........................................................................

 iter      E             dE          RMSdq      gap      omega  full diag
   1   -109.4379654 -0.109438E+03  0.140E-01    2.00       0.0  T
   2   -109.4380060 -0.406476E-04  0.776E-02    2.00       1.0  T
   3   -109.4379731  0.329487E-04  0.409E-02    2.01       1.0  T
   4   -109.4380269 -0.538106E-04  0.103E-02    2.00       1.3  T
   5   -109.4380288 -0.194151E-05  0.543E-03    2.00       2.6  T
   6   -109.4380295 -0.628712E-06  0.187E-03    2.00       7.4  T
   7   -109.4380296 -0.124387E-06  0.732E-04    2.00      18.9  T
   8   -109.4380296 -0.408049E-08  0.400E-04    2.00      34.7  T
     SCC iter.                  ...        0 min,  0.020 sec
     gradient                   ...        0 min,  0.017 sec
 * total energy  :  -108.2590326 Eh     change       -0.1716222E-03 Eh
   gradient norm :     0.0096100 Eh/α   predicted    -0.2224588E-03 (  29.62%)
   displ. norm   :     0.2936990 α      lambda       -0.2848916E-03
   maximum displ.:     0.1621076 α      in ANC's #1, #3, #13, ...

........................................................................
.............................. CYCLE  111 ..............................
........................................................................

 iter      E             dE          RMSdq      gap      omega  full diag
   1   -109.4415221 -0.109442E+03  0.770E-02    2.01       0.0  T
   2   -109.4415290 -0.693183E-05  0.440E-02    2.01       1.0  T
   3   -109.4415142  0.147935E-04  0.218E-02    2.01       1.0  T
   4   -109.4415332 -0.190273E-04  0.521E-03    2.01       2.7  T
   5   -109.4415338 -0.615245E-06  0.254E-03    2.01       5.5  T
   6   -109.4415340 -0.116615E-06  0.935E-04    2.01      14.8  T
   7   -109.4415340 -0.293272E-07  0.382E-04    2.01      36.3  T
     SCC iter.                  ...        0 min,  0.018 sec
     gradient                   ...        0 min,  0.017 sec
 * total energy  :  -108.2592295 Eh     change       -0.1968585E-03 Eh
   gradient norm :     0.0102484 Eh/α   predicted    -0.1547376E-03 ( -21.40%)
   displ. norm   :     0.2812097 α      lambda       -0.2555005E-03
   maximum displ.:     0.1498868 α      in ANC's #1, #3, #6, ...

........................................................................
.............................. CYCLE  112 ..............................
........................................................................

 iter      E             dE          RMSdq      gap      omega  full diag
   1   -109.4455603 -0.109446E+03  0.753E-02    2.02       0.0  T
   2   -109.4455687 -0.836098E-05  0.429E-02    2.01       1.0  T
   3   -109.4455603  0.837929E-05  0.185E-02    2.02       1.0  T
   4   -109.4455719 -0.115750E-04  0.440E-03    2.01       3.2  T
   5   -109.4455723 -0.410163E-06  0.235E-03    2.01       5.9  T
   6   -109.4455724 -0.122697E-06  0.923E-04    2.01      15.0  T
   7   -109.4455724 -0.240267E-07  0.397E-04    2.01      34.9  T
     SCC iter.                  ...        0 min,  0.018 sec
     gradient                   ...        0 min,  0.017 sec
 * total energy  :  -108.2594245 Eh     change       -0.1950562E-03 Eh
   gradient norm :     0.0076715 Eh/α   predicted    -0.1378547E-03 ( -29.33%)
   displ. norm   :     0.5414467 α      lambda       -0.3134467E-03
   maximum displ.:     0.3148545 α      in ANC's #3, #1, #13, ...

........................................................................
.............................. CYCLE  113 ..............................
........................................................................

 iter      E             dE          RMSdq      gap      omega  full diag
   1   -109.4426482 -0.109443E+03  0.131E-01    2.02       0.0  T
   2   -109.4426580 -0.977867E-05  0.731E-02    2.02       1.0  T
   3   -109.4426522  0.578934E-05  0.172E-02    2.02       1.0  T
   4   -109.4426595 -0.731207E-05  0.812E-03    2.02       1.7  T
   5   -109.4426608 -0.124464E-05  0.372E-03    2.02       3.7  T
   6   -109.4426612 -0.425208E-06  0.103E-03    2.02      13.5  T
   7   -109.4426612 -0.176129E-07  0.577E-04    2.02      24.0  T
   8   -109.4426612 -0.214104E-08  0.290E-04    2.02      47.9  T
     SCC iter.                  ...        0 min,  0.020 sec
     gradient                   ...        0 min,  0.017 sec
 * total energy  :  -108.2596356 Eh     change       -0.2110421E-03 Eh
   gradient norm :     0.0089630 Eh/α   predicted    -0.2026717E-03 (  -3.97%)
   displ. norm   :     0.3317200 α      lambda       -0.2076966E-03
   maximum displ.:     0.1819489 α      in ANC's #1, #3, #7, ...

........................................................................
.............................. CYCLE  114 ..............................
........................................................................

 iter      E             dE          RMSdq      gap      omega  full diag
   1   -109.4445492 -0.109445E+03  0.926E-02    2.02       0.0  T
   2   -109.4445709 -0.216929E-04  0.541E-02    2.02       1.0  T
   3   -109.4445583  0.126151E-04  0.279E-02    2.02       1.0  T
   4   -109.4445823 -0.240010E-04  0.517E-03    2.02       2.7  T
   5   -109.4445830 -0.733450E-06  0.238E-03    2.02       5.8  T
   6   -109.4445831 -0.403475E-07  0.127E-03    2.02      11.0  T
   7   -109.4445831 -0.509550E-07  0.488E-04    2.02      28.4  T
   8   -109.4445831 -0.324182E-08  0.251E-04    2.02      55.3  T
     SCC iter.                  ...        0 min,  0.020 sec
     gradient                   ...        0 min,  0.017 sec
 * total energy  :  -108.2597433 Eh     change       -0.1077230E-03 Eh
   gradient norm :     0.0067306 Eh/α   predicted    -0.1152784E-03 (   7.01%)
   displ. norm   :     0.2269832 α      lambda       -0.1090963E-03
   maximum displ.:     0.1582762 α      in ANC's #3, #1, #13, ...

........................................................................
.............................. CYCLE  115 ..............................
........................................................................

 iter      E             dE          RMSdq      gap      omega  full diag
   1   -109.4424210 -0.109442E+03  0.463E-02    2.01       0.0  T
   2   -109.4424235 -0.253832E-05  0.259E-02    2.01       1.0  T
   3   -109.4424222  0.133668E-05  0.779E-03    2.01       1.8  T
   4   -109.4424241 -0.189949E-05  0.298E-03    2.01       4.7  T
   5   -109.4424242 -0.961061E-07  0.163E-03    2.01       8.5  T
   6   -109.4424242 -0.639796E-07  0.625E-04    2.01      22.2  T
   7   -109.4424243 -0.124243E-07  0.278E-04    2.01      49.9  T
     SCC iter.                  ...        0 min,  0.018 sec
     gradient                   ...        0 min,  0.017 sec
 * total energy  :  -108.2597987 Eh     change       -0.5546227E-04 Eh
   gradient norm :     0.0078280 Eh/α   predicted    -0.5736167E-04 (   3.42%)
   displ. norm   :     0.1899528 α      lambda       -0.9135244E-04
   maximum displ.:     0.1262869 α      in ANC's #1, #3, #13, ...

........................................................................
.............................. CYCLE  116 ..............................
........................................................................

 iter      E             dE          RMSdq      gap      omega  full diag
   1   -109.4428526 -0.109443E+03  0.389E-02    2.01       0.0  T
   2   -109.4428543 -0.161830E-05  0.220E-02    2.01       1.0  T
   3   -109.4428506  0.369074E-05  0.106E-02    2.01       1.3  T
   4   -109.4428553 -0.471738E-05  0.265E-03    2.01       5.2  T
   5   -109.4428554 -0.668740E-07  0.143E-03    2.01       9.7  T
   6   -109.4428554 -0.590997E-07  0.438E-04    2.01      31.7  T
   7   -109.4428554 -0.505906E-08  0.205E-04    2.01      67.7  T
     SCC iter.                  ...        0 min,  0.018 sec
     gradient                   ...        0 min,  0.018 sec
 * total energy  :  -108.2598659 Eh     change       -0.6715884E-04 Eh
   gradient norm :     0.0040333 Eh/α   predicted    -0.4732688E-04 ( -29.53%)
   displ. norm   :     0.2025257 α      lambda       -0.9352692E-04
   maximum displ.:     0.1371113 α      in ANC's #1, #3, #12, ...

........................................................................
.............................. CYCLE  117 ..............................
........................................................................

 iter      E             dE          RMSdq      gap      omega  full diag
   1   -109.4462099 -0.109446E+03  0.412E-02    2.01       0.0  T
   2   -109.4462116 -0.171095E-05  0.239E-02    2.01       1.0  T
   3   -109.4462058  0.586978E-05  0.126E-02    2.02       1.1  T
   4   -109.4462128 -0.700119E-05  0.259E-03    2.02       5.4  T
   5   -109.4462129 -0.145750E-06  0.120E-03    2.02      11.5  T
   6   -109.4462129 -0.261920E-07  0.520E-04    2.02      26.7  T
   7   -109.4462129 -0.689836E-08  0.245E-04    2.02      56.7  T
     SCC iter.                  ...        0 min,  0.018 sec
     gradient                   ...        0 min,  0.017 sec
 * total energy  :  -108.2599258 Eh     change       -0.5985903E-04 Eh
   gradient norm :     0.0037729 Eh/α   predicted    -0.4868589E-04 ( -18.67%)
   displ. norm   :     0.2343632 α      lambda       -0.5744765E-04
   maximum displ.:     0.1575847 α      in ANC's #1, #3, #12, ...

........................................................................
.............................. CYCLE  118 ..............................
........................................................................

 iter      E             dE          RMSdq      gap      omega  full diag
   1   -109.4450905 -0.109445E+03  0.465E-02    2.01       0.0  T
   2   -109.4450916 -0.114417E-05  0.261E-02    2.01       1.0  T
   3   -109.4450909  0.720860E-06  0.576E-03    2.01       2.4  T
   4   -109.4450918 -0.939561E-06  0.258E-03    2.01       5.4  T
   5   -109.4450920 -0.139917E-06  0.109E-03    2.01      12.7  T
   6   -109.4450920 -0.333424E-07  0.358E-04    2.01      38.7  T
   7   -109.4450920 -0.230641E-08  0.199E-04    2.01      69.7  T
     SCC iter.                  ...        0 min,  0.018 sec
     gradient                   ...        0 min,  0.017 sec
 * total energy  :  -108.2599708 Eh     change       -0.4506976E-04 Eh
   gradient norm :     0.0037716 Eh/α   predicted    -0.3030657E-04 ( -32.76%)
   displ. norm   :     0.2589125 α      lambda       -0.8033895E-04
   maximum displ.:     0.1750645 α      in ANC's #1, #3, #9, ...

........................................................................
.............................. CYCLE  119 ..............................
........................................................................

 iter      E             dE          RMSdq      gap      omega  full diag
   1   -109.4455970 -0.109446E+03  0.510E-02    2.01       0.0  T
   2   -109.4455994 -0.236611E-05  0.289E-02    2.01       1.0  T
   3   -109.4455984  0.999130E-06  0.729E-03    2.01       1.9  T
   4   -109.4456000 -0.157967E-05  0.206E-03    2.01       6.7  T
   5   -109.4456000 -0.404859E-07  0.851E-04    2.01      16.3  T
   6   -109.4456000 -0.829657E-08  0.364E-04    2.01      38.1  T
     SCC iter.                  ...        0 min,  0.015 sec
     gradient                   ...        0 min,  0.018 sec
 * total energy  :  -108.2600292 Eh     change       -0.5841593E-04 Eh
   gradient norm :     0.0042091 Eh/α   predicted    -0.4286457E-04 ( -26.62%)
   displ. norm   :     0.2586095 α      lambda       -0.6267102E-04
   maximum displ.:     0.1737160 α      in ANC's #1, #3, #12, ...

........................................................................
.............................. CYCLE  120 ..............................
........................................................................

 iter      E             dE          RMSdq      gap      omega  full diag
   1   -109.4435992 -0.109444E+03  0.556E-02    2.01       0.0  T
   2   -109.4436024 -0.321156E-05  0.321E-02    2.01       1.0  T
   3   -109.4435963  0.617643E-05  0.130E-02    2.01       1.1  T
   4   -109.4436040 -0.777567E-05  0.264E-03    2.01       5.3  T
   5   -109.4436041 -0.528565E-07  0.159E-03    2.01       8.7  T
   6   -109.4436042 -0.702533E-07  0.647E-04    2.01      21.4  T
   7   -109.4436042 -0.119785E-07  0.229E-04    2.01      60.5  T
     SCC iter.                  ...        0 min,  0.018 sec
     gradient                   ...        0 min,  0.017 sec
 * total energy  :  -108.2600656 Eh     change       -0.3631706E-04 Eh
   gradient norm :     0.0027639 Eh/α   predicted    -0.3343350E-04 (  -7.94%)
   displ. norm   :     0.1586065 α      lambda       -0.3753046E-04
   maximum displ.:     0.1082298 α      in ANC's #1, #3, #9, ...
 * RMSD in coord.:     0.9396906 α      energy gain  -0.4920862E-02 Eh

generating ANC from exact Hessian ...
Using Lindh-Hessian (1995)
 Shifting diagonal of input Hessian by    9.8877784692595408E-003
 Lowest  eigenvalues of input Hessian
    0.000000    0.000000    0.000000    0.000000    0.000000    0.000000
    0.010000    0.010056    0.010114    0.010383    0.010741    0.010976
    0.011213    0.011606    0.011947    0.012258    0.012843    0.013248
 Highest eigenvalues
    2.216535    2.354890    2.392400    2.507353    3.104189    3.147738


........................................................................
.............................. CYCLE  121 ..............................
........................................................................

 iter      E             dE          RMSdq      gap      omega  full diag
   1   -109.4442379 -0.109444E+03  0.276E-02    2.01       0.0  T
   2   -109.4442389 -0.995641E-06  0.159E-02    2.01       1.0  T
   3   -109.4442370  0.185957E-05  0.738E-03    2.01       1.9  T
   4   -109.4442392 -0.215998E-05  0.206E-03    2.01       6.7  T
   5   -109.4442393 -0.119016E-06  0.797E-04    2.01      17.4  T
   6   -109.4442393 -0.662325E-08  0.380E-04    2.01      36.5  T
     SCC iter.                  ...        0 min,  0.015 sec
     gradient                   ...        0 min,  0.017 sec
 * total energy  :  -108.2600864 Eh     change       -0.2080602E-04 Eh
   gradient norm :     0.0042964 Eh/α   predicted     0.0000000E+00 (-100.00%)
   displ. norm   :     0.0312096 α      lambda       -0.2573865E-04
   maximum displ.:     0.0167156 α      in ANC's #1, #7, #3, ...

........................................................................
.............................. CYCLE  122 ..............................
........................................................................

 iter      E             dE          RMSdq      gap      omega  full diag
   1   -109.4442379 -0.109444E+03  0.132E-02    2.01       0.0  T
   2   -109.4442381 -0.234142E-06  0.765E-03    2.01       1.8  T
   3   -109.4442378  0.293900E-06  0.317E-03    2.01       4.4  T
   4   -109.4442382 -0.370746E-06  0.931E-04    2.01      14.9  T
   5   -109.4442382 -0.237477E-07  0.427E-04    2.01      32.4  T
     SCC iter.                  ...        0 min,  0.013 sec
     gradient                   ...        0 min,  0.017 sec
 * total energy  :  -108.2601081 Eh     change       -0.2173833E-04 Eh
   gradient norm :     0.0016190 Eh/α   predicted    -0.1634338E-04 ( -24.82%)
   displ. norm   :     0.1365563 α      lambda       -0.6087762E-04
   maximum displ.:     0.0731649 α      in ANC's #1, #7, #15, ...

........................................................................
.............................. CYCLE  123 ..............................
........................................................................

 iter      E             dE          RMSdq      gap      omega  full diag
   1   -109.4443004 -0.109444E+03  0.582E-02    2.01       0.0  T
   2   -109.4443031 -0.265320E-05  0.340E-02    2.01       1.0  T
   3   -109.4442984  0.472039E-05  0.117E-02    2.01       1.2  T
   4   -109.4443040 -0.562491E-05  0.319E-03    2.01       4.3  T
   5   -109.4443042 -0.244014E-06  0.156E-03    2.01       8.9  T
   6   -109.4443043 -0.376970E-07  0.655E-04    2.01      21.2  T
   7   -109.4443043 -0.146560E-07  0.247E-04    2.01      56.2  T
     SCC iter.                  ...        0 min,  0.017 sec
     gradient                   ...        0 min,  0.017 sec
 * total energy  :  -108.2600424 Eh     change        0.6572923E-04 Eh
   gradient norm :     0.0104802 Eh/α   predicted    -0.3069787E-04 (-146.70%)
   displ. norm   :     0.0345601 α      lambda       -0.1364721E-03
   maximum displ.:     0.0201670 α      in ANC's #4, #8, #14, ...

........................................................................
.............................. CYCLE  124 ..............................
........................................................................

 iter      E             dE          RMSdq      gap      omega  full diag
   1   -109.4448989 -0.109445E+03  0.193E-02    2.01       0.0  T
   2   -109.4448994 -0.487895E-06  0.117E-02    2.01       1.2  T
   3   -109.4448985  0.900226E-06  0.523E-03    2.01       2.7  T
   4   -109.4448996 -0.111237E-05  0.104E-03    2.01      13.4  T
   5   -109.4448996 -0.388344E-07  0.440E-04    2.01      31.5  T
   6   -109.4448996 -0.269695E-08  0.217E-04    2.01      64.0  T
     SCC iter.                  ...        0 min,  0.015 sec
     gradient                   ...        0 min,  0.017 sec
 * total energy  :  -108.2601366 Eh     change       -0.9421658E-04 Eh
   gradient norm :     0.0058141 Eh/α   predicted    -0.6831916E-04 ( -27.49%)
   displ. norm   :     0.0371979 α      lambda       -0.5054826E-04
   maximum displ.:     0.0227771 α      in ANC's #1, #7, #3, ...

........................................................................
.............................. CYCLE  125 ..............................
........................................................................

 iter      E             dE          RMSdq      gap      omega  full diag
   1   -109.4447998 -0.109445E+03  0.142E-02    2.01       0.0  T
   2   -109.4448005 -0.702383E-06  0.859E-03    2.01       1.6  T
   3   -109.4448004  0.136599E-06  0.445E-03    2.01       3.1  T
   4   -109.4448008 -0.401616E-06  0.977E-04    2.01      14.2  T
   5   -109.4448008 -0.323207E-07  0.406E-04    2.01      34.2  T
     SCC iter.                  ...        0 min,  0.013 sec
     gradient                   ...        0 min,  0.017 sec
 * total energy  :  -108.2601675 Eh     change       -0.3085869E-04 Eh
   gradient norm :     0.0016741 Eh/α   predicted    -0.2530984E-04 ( -17.98%)
   displ. norm   :     0.0841722 α      lambda       -0.2261362E-04
   maximum displ.:     0.0599943 α      in ANC's #1, #3, #7, ...

........................................................................
.............................. CYCLE  126 ..............................
........................................................................

 iter      E             dE          RMSdq      gap      omega  full diag
   1   -109.4447623 -0.109445E+03  0.252E-02    2.01       0.0  T
   2   -109.4447633 -0.925443E-06  0.149E-02    2.01       1.0  T
   3   -109.4447610  0.226900E-05  0.880E-03    2.01       1.6  T
   4   -109.4447640 -0.297490E-05  0.182E-03    2.01       7.6  T
   5   -109.4447641 -0.103398E-06  0.811E-04    2.01      17.1  T
   6   -109.4447641 -0.561077E-08  0.328E-04    2.01      42.3  T
     SCC iter.                  ...        0 min,  0.015 sec
     gradient                   ...        0 min,  0.017 sec
 * total energy  :  -108.2601717 Eh     change       -0.4199163E-05 Eh
   gradient norm :     0.0028303 Eh/α   predicted    -0.1134291E-04 ( 170.12%)
   displ. norm   :     0.1092278 α      lambda       -0.5235532E-04
   maximum displ.:     0.0687884 α      in ANC's #1, #7, #3, ...

........................................................................
.............................. CYCLE  127 ..............................
........................................................................

 iter      E             dE          RMSdq      gap      omega  full diag
   1   -109.4445135 -0.109445E+03  0.392E-02    2.00       0.0  T
   2   -109.4445139 -0.435103E-06  0.228E-02    2.00       1.0  T
   3   -109.4445134  0.474526E-06  0.403E-03    2.01       3.4  T
   4   -109.4445140 -0.612980E-06  0.128E-03    2.01      10.8  T
   5   -109.4445141 -0.250266E-07  0.692E-04    2.01      20.0  T
   6   -109.4445141 -0.119885E-07  0.221E-04    2.01      62.9  T
     SCC iter.                  ...        0 min,  0.015 sec
     gradient                   ...        0 min,  0.017 sec
 * total energy  :  -108.2602084 Eh     change       -0.3670466E-04 Eh
   gradient norm :     0.0028247 Eh/α   predicted    -0.2649045E-04 ( -27.83%)
   displ. norm   :     0.1472664 α      lambda       -0.4720034E-04
   maximum displ.:     0.0958499 α      in ANC's #1, #7, #3, ...

........................................................................
.............................. CYCLE  128 ..............................
........................................................................

 iter      E             dE          RMSdq      gap      omega  full diag
   1   -109.4441767 -0.109444E+03  0.505E-02    2.00       0.0  T
   2   -109.4441774 -0.707495E-06  0.293E-02    2.00       1.0  T
   3   -109.4441765  0.937705E-06  0.519E-03    2.00       2.7  T
   4   -109.4441777 -0.121195E-05  0.175E-03    2.00       7.9  T
   5   -109.4441777 -0.413541E-07  0.899E-04    2.00      15.4  T
   6   -109.4441777 -0.199358E-07  0.316E-04    2.00      43.9  T
     SCC iter.                  ...        0 min,  0.015 sec
     gradient                   ...        0 min,  0.017 sec
 * total energy  :  -108.2602414 Eh     change       -0.3304884E-04 Eh
   gradient norm :     0.0018068 Eh/α   predicted    -0.2411219E-04 ( -27.04%)
   displ. norm   :     0.1949542 α      lambda       -0.2774151E-04
   maximum displ.:     0.1343326 α      in ANC's #1, #7, #3, ...

........................................................................
.............................. CYCLE  129 ..............................
........................................................................

 iter      E             dE          RMSdq      gap      omega  full diag
   1   -109.4442402 -0.109444E+03  0.599E-02    2.00       0.0  T
   2   -109.4442419 -0.168394E-05  0.345E-02    2.00       1.0  T
   3   -109.4442408  0.109358E-05  0.675E-03    2.00       2.1  T
   4   -109.4442424 -0.164167E-05  0.208E-03    2.00       6.7  T
   5   -109.4442425 -0.203171E-07  0.138E-03    2.00      10.0  T
   6   -109.4442425 -0.553224E-07  0.453E-04    2.00      30.6  T
   7   -109.4442425 -0.383035E-08  0.219E-04    2.00      63.4  T
     SCC iter.                  ...        0 min,  0.017 sec
     gradient                   ...        0 min,  0.017 sec
 * total energy  :  -108.2602688 Eh     change       -0.2737077E-04 Eh
   gradient norm :     0.0025556 Eh/α   predicted    -0.1410531E-04 ( -48.47%)
   displ. norm   :     0.0714995 α      lambda       -0.1980013E-04
   maximum displ.:     0.0528691 α      in ANC's #1, #3, #7, ...

........................................................................
.............................. CYCLE  130 ..............................
........................................................................

 iter      E             dE          RMSdq      gap      omega  full diag
   1   -109.4448615 -0.109445E+03  0.174E-02    2.00       0.0  T
   2   -109.4448620 -0.451499E-06  0.997E-03    2.01       1.4  T
   3   -109.4448615  0.480613E-06  0.436E-03    2.01       3.2  T
   4   -109.4448622 -0.675178E-06  0.947E-04    2.01      14.7  T
   5   -109.4448622 -0.201007E-07  0.540E-04    2.01      25.7  T
     SCC iter.                  ...        0 min,  0.013 sec
     gradient                   ...        0 min,  0.017 sec
 * total energy  :  -108.2602854 Eh     change       -0.1661799E-04 Eh
   gradient norm :     0.0014196 Eh/α   predicted    -0.9952114E-05 ( -40.11%)
   displ. norm   :     0.1608929 α      lambda       -0.2447572E-04
   maximum displ.:     0.1159227 α      in ANC's #1, #3, #7, ...

........................................................................
.............................. CYCLE  131 ..............................
........................................................................

 iter      E             dE          RMSdq      gap      omega  full diag
   1   -109.4451745 -0.109445E+03  0.377E-02    2.01       0.0  T
   2   -109.4451760 -0.145417E-05  0.215E-02    2.01       1.0  T
   3   -109.4451741  0.193893E-05  0.799E-03    2.01       1.7  T
   4   -109.4451766 -0.249126E-05  0.201E-03    2.01       6.9  T
   5   -109.4451766 -0.774946E-07  0.114E-03    2.01      12.1  T
   6   -109.4451767 -0.283452E-07  0.433E-04    2.01      32.1  T
   7   -109.4451767 -0.315622E-08  0.214E-04    2.01      64.7  T
     SCC iter.                  ...        0 min,  0.017 sec
     gradient                   ...        0 min,  0.017 sec
 * total energy  :  -108.2603109 Eh     change       -0.2551964E-04 Eh
   gradient norm :     0.0012669 Eh/α   predicted    -0.1238109E-04 ( -51.48%)
   displ. norm   :     0.1591395 α      lambda        0.1742663E-05
   maximum displ.:     0.1146619 α      in ANC's #1, #3, #7, ...

........................................................................
.............................. CYCLE  132 ..............................
........................................................................

 iter      E             dE          RMSdq      gap      omega  full diag
   1   -109.4451396 -0.109445E+03  0.373E-02    2.01       0.0  T
   2   -109.4451412 -0.160058E-05  0.213E-02    2.01       1.0  T
   3   -109.4451390  0.218334E-05  0.857E-03    2.01       1.6  T
   4   -109.4451419 -0.283046E-05  0.206E-03    2.01       6.7  T
   5   -109.4451420 -0.894921E-07  0.116E-03    2.01      12.0  T
   6   -109.4451420 -0.277911E-07  0.449E-04    2.01      30.9  T
   7   -109.4451420 -0.374536E-08  0.219E-04    2.01      63.4  T
     SCC iter.                  ...        0 min,  0.017 sec
     gradient                   ...        0 min,  0.017 sec
 * total energy  :  -108.2603147 Eh     change       -0.3770825E-05 Eh
   gradient norm :     0.0029231 Eh/α   predicted     0.8801226E-06 (-123.34%)
   displ. norm   :     0.0287808 α      lambda       -0.1296416E-04
   maximum displ.:     0.0199875 α      in ANC's #1, #3, #7, ...

........................................................................
.............................. CYCLE  133 ..............................
........................................................................

 iter      E             dE          RMSdq      gap      omega  full diag
   1   -109.4450994 -0.109445E+03  0.808E-03    2.01       0.0  T
   2   -109.4450996 -0.196539E-06  0.478E-03    2.01       2.9  T
   3   -109.4450995  0.657330E-07  0.249E-03    2.01       5.6  T
   4   -109.4450996 -0.142967E-06  0.594E-04    2.01      23.3  T
   5   -109.4450996 -0.124840E-07  0.250E-04    2.01      55.6  T
     SCC iter.                  ...        0 min,  0.012 sec
     gradient                   ...        0 min,  0.017 sec
 * total energy  :  -108.2603258 Eh     change       -0.1113062E-04 Eh
   gradient norm :     0.0018413 Eh/α   predicted    -0.6490618E-05 ( -41.69%)
   displ. norm   :     0.1191163 α      lambda       -0.2794330E-04
   maximum displ.:     0.0846028 α      in ANC's #1, #3, #7, ...

........................................................................
.............................. CYCLE  134 ..............................
........................................................................

 iter      E             dE          RMSdq      gap      omega  full diag
   1   -109.4445658 -0.109445E+03  0.307E-02    2.01       0.0  T
   2   -109.4445670 -0.115976E-05  0.178E-02    2.01       1.0  T
   3   -109.4445657  0.135437E-05  0.700E-03    2.01       2.0  T
   4   -109.4445674 -0.170895E-05  0.191E-03    2.01       7.2  T
   5   -109.4445675 -0.925442E-07  0.951E-04    2.01      14.6  T
   6   -109.4445675 -0.219108E-07  0.304E-04    2.01      45.6  T
     SCC iter.                  ...        0 min,  0.015 sec
     gradient                   ...        0 min,  0.017 sec
 * total energy  :  -108.2603449 Eh     change       -0.1903735E-04 Eh
   gradient norm :     0.0023520 Eh/α   predicted    -0.1406219E-04 ( -26.13%)
   displ. norm   :     0.0408583 α      lambda       -0.9179869E-05
   maximum displ.:     0.0312947 α      in ANC's #1, #3, #8, ...

........................................................................
.............................. CYCLE  135 ..............................
........................................................................

 iter      E             dE          RMSdq      gap      omega  full diag
   1   -109.4449191 -0.109445E+03  0.756E-03    2.01       0.0  T
   2   -109.4449191 -0.731566E-07  0.426E-03    2.01       3.3  T
   3   -109.4449191  0.806641E-07  0.171E-03    2.01       8.1  T
   4   -109.4449192 -0.104775E-06  0.521E-04    2.01      26.6  T
   5   -109.4449192 -0.427411E-08  0.283E-04    2.01      49.1  T
     SCC iter.                  ...        0 min,  0.012 sec
     gradient                   ...        0 min,  0.017 sec
 * total energy  :  -108.2603532 Eh     change       -0.8298379E-05 Eh
   gradient norm :     0.0017057 Eh/α   predicted    -0.4598929E-05 ( -44.58%)
   displ. norm   :     0.1041708 α      lambda       -0.1862056E-04
   maximum displ.:     0.0730405 α      in ANC's #1, #3, #6, ...

........................................................................
.............................. CYCLE  136 ..............................
........................................................................

 iter      E             dE          RMSdq      gap      omega  full diag
   1   -109.4452314 -0.109445E+03  0.250E-02    2.01       0.0  T
   2   -109.4452321 -0.706636E-06  0.142E-02    2.01       1.0  T
   3   -109.4452311  0.980891E-06  0.607E-03    2.01       2.3  T
   4   -109.4452323 -0.123295E-05  0.174E-03    2.01       8.0  T
   5   -109.4452324 -0.667736E-07  0.937E-04    2.01      14.8  T
   6   -109.4452324 -0.217262E-07  0.267E-04    2.01      51.9  T
     SCC iter.                  ...        0 min,  0.015 sec
     gradient                   ...        0 min,  0.017 sec
 * total energy  :  -108.2603719 Eh     change       -0.1869958E-04 Eh
   gradient norm :     0.0020379 Eh/α   predicted    -0.9357810E-05 ( -49.96%)
   displ. norm   :     0.0712379 α      lambda       -0.1055126E-04
   maximum displ.:     0.0488321 α      in ANC's #1, #3, #6, ...

........................................................................
.............................. CYCLE  137 ..............................
........................................................................

 iter      E             dE          RMSdq      gap      omega  full diag
   1   -109.4453159 -0.109445E+03  0.154E-02    2.01       0.0  T
   2   -109.4453161 -0.194358E-06  0.857E-03    2.01       1.6  T
   3   -109.4453158  0.249587E-06  0.298E-03    2.01       4.7  T
   4   -109.4453162 -0.316843E-06  0.102E-03    2.01      13.6  T
   5   -109.4453162 -0.100758E-07  0.595E-04    2.01      23.3  T
   6   -109.4453162 -0.113200E-07  0.154E-04    2.01      90.3  T
     SCC iter.                  ...        0 min,  0.015 sec
     gradient                   ...        0 min,  0.017 sec
 * total energy  :  -108.2603815 Eh     change       -0.9680490E-05 Eh
   gradient norm :     0.0019969 Eh/α   predicted    -0.5303554E-05 ( -45.21%)
   displ. norm   :     0.1739075 α      lambda       -0.1748800E-04
   maximum displ.:     0.1168077 α      in ANC's #1, #3, #6, ...

........................................................................
.............................. CYCLE  138 ..............................
........................................................................

 iter      E             dE          RMSdq      gap      omega  full diag
   1   -109.4450460 -0.109445E+03  0.374E-02    2.01       0.0  T
   2   -109.4450471 -0.111226E-05  0.207E-02    2.01       1.0  T
   3   -109.4450454  0.173178E-05  0.764E-03    2.01       1.8  T
   4   -109.4450476 -0.219185E-05  0.250E-03    2.01       5.5  T
   5   -109.4450476 -0.511074E-07  0.145E-03    2.01       9.5  T
   6   -109.4450477 -0.694669E-07  0.355E-04    2.01      39.1  T
   7   -109.4450477 -0.341583E-08  0.171E-04    2.01      80.9  T
     SCC iter.                  ...        0 min,  0.017 sec
     gradient                   ...        0 min,  0.017 sec
 * total energy  :  -108.2604039 Eh     change       -0.2232196E-04 Eh
   gradient norm :     0.0013836 Eh/α   predicted    -0.8865150E-05 ( -60.29%)
   displ. norm   :     0.1968253 α      lambda       -0.1757881E-04
   maximum displ.:     0.1350520 α      in ANC's #1, #3, #6, ...

........................................................................
.............................. CYCLE  139 ..............................
........................................................................

 iter      E             dE          RMSdq      gap      omega  full diag
   1   -109.4447723 -0.109445E+03  0.393E-02    2.01       0.0  T
   2   -109.4447733 -0.945094E-06  0.215E-02    2.01       1.0  T
   3   -109.4447715  0.183443E-05  0.769E-03    2.01       1.8  T
   4   -109.4447737 -0.222348E-05  0.273E-03    2.01       5.1  T
   5   -109.4447738 -0.735181E-07  0.137E-03    2.01      10.2  T
   6   -109.4447738 -0.640339E-07  0.333E-04    2.01      41.7  T
   7   -109.4447738 -0.251048E-08  0.179E-04    2.01      77.5  T
     SCC iter.                  ...        0 min,  0.017 sec
     gradient                   ...        0 min,  0.017 sec
 * total energy  :  -108.2604270 Eh     change       -0.2309944E-04 Eh
   gradient norm :     0.0011100 Eh/α   predicted    -0.8942049E-05 ( -61.29%)
   displ. norm   :     0.2305326 α      lambda       -0.1960243E-04
   maximum displ.:     0.1608988 α      in ANC's #1, #3, #6, ...

........................................................................
.............................. CYCLE  140 ..............................
........................................................................

 iter      E             dE          RMSdq      gap      omega  full diag
   1   -109.4445122 -0.109445E+03  0.432E-02    2.01       0.0  T
   2   -109.4445132 -0.100440E-05  0.236E-02    2.00       1.0  T
   3   -109.4445112  0.199954E-05  0.808E-03    2.01       1.7  T
   4   -109.4445136 -0.239320E-05  0.301E-03    2.01       4.6  T
   5   -109.4445137 -0.100045E-06  0.122E-03    2.01      11.4  T
   6   -109.4445137 -0.544596E-07  0.351E-04    2.01      39.6  T
   7   -109.4445137 -0.291651E-08  0.184E-04    2.01      75.2  T
     SCC iter.                  ...        0 min,  0.017 sec
     gradient                   ...        0 min,  0.017 sec
 * total energy  :  -108.2604529 Eh     change       -0.2593664E-04 Eh
   gradient norm :     0.0013171 Eh/α   predicted    -0.1003459E-04 ( -61.31%)
   displ. norm   :     0.2699731 α      lambda       -0.2179656E-04
   maximum displ.:     0.1909116 α      in ANC's #1, #3, #5, ...

........................................................................
.............................. CYCLE  141 ..............................
........................................................................

 iter      E             dE          RMSdq      gap      omega  full diag
   1   -109.4443080 -0.109444E+03  0.485E-02    2.00       0.0  T
   2   -109.4443091 -0.116525E-05  0.265E-02    2.00       1.0  T
   3   -109.4443073  0.186347E-05  0.818E-03    2.01       1.7  T
   4   -109.4443095 -0.220730E-05  0.340E-03    2.01       4.1  T
   5   -109.4443097 -0.181161E-06  0.960E-04    2.01      14.4  T
   6   -109.4443097 -0.282552E-07  0.387E-04    2.01      35.8  T
     SCC iter.                  ...        0 min,  0.015 sec
     gradient                   ...        0 min,  0.017 sec
 * total energy  :  -108.2604813 Eh     change       -0.2843155E-04 Eh
   gradient norm :     0.0013809 Eh/α   predicted    -0.1125365E-04 ( -60.42%)
   displ. norm   :     0.2829049 α      lambda       -0.2097942E-04
   maximum displ.:     0.2023091 α      in ANC's #1, #3, #5, ...

........................................................................
.............................. CYCLE  142 ..............................
........................................................................

 iter      E             dE          RMSdq      gap      omega  full diag
   1   -109.4441693 -0.109444E+03  0.495E-02    2.00       0.0  T
   2   -109.4441706 -0.124623E-05  0.272E-02    2.00       1.0  T
   3   -109.4441694  0.114408E-05  0.717E-03    2.01       1.9  T
   4   -109.4441708 -0.137235E-05  0.347E-03    2.01       4.0  T
   5   -109.4441710 -0.212976E-06  0.121E-03    2.01      11.4  T
   6   -109.4441711 -0.509865E-07  0.331E-04    2.01      41.9  T
   7   -109.4441711 -0.192763E-08  0.194E-04    2.01      71.3  T
     SCC iter.                  ...        0 min,  0.017 sec
     gradient                   ...        0 min,  0.017 sec
 * total energy  :  -108.2605085 Eh     change       -0.2720788E-04 Eh
   gradient norm :     0.0012320 Eh/α   predicted    -0.1086525E-04 ( -60.07%)
   displ. norm   :     0.2732289 α      lambda       -0.1901802E-04
   maximum displ.:     0.1975330 α      in ANC's #1, #3, #5, ...

........................................................................
.............................. CYCLE  143 ..............................
........................................................................

 iter      E             dE          RMSdq      gap      omega  full diag
   1   -109.4442568 -0.109444E+03  0.470E-02    2.00       0.0  T
   2   -109.4442579 -0.107160E-05  0.260E-02    2.01       1.0  T
   3   -109.4442571  0.817874E-06  0.627E-03    2.01       2.2  T
   4   -109.4442581 -0.998430E-06  0.313E-03    2.01       4.4  T
   5   -109.4442583 -0.177019E-06  0.115E-03    2.01      12.1  T
   6   -109.4442583 -0.483661E-07  0.317E-04    2.01      43.8  T
   7   -109.4442583 -0.181241E-08  0.177E-04    2.01      78.2  T
     SCC iter.                  ...        0 min,  0.017 sec
     gradient                   ...        0 min,  0.017 sec
 * total energy  :  -108.2605330 Eh     change       -0.2445151E-04 Eh
   gradient norm :     0.0010990 Eh/α   predicted    -0.9826397E-05 ( -59.81%)
   displ. norm   :     0.2627674 α      lambda       -0.1734554E-04
   maximum displ.:     0.1909451 α      in ANC's #1, #3, #5, ...

........................................................................
.............................. CYCLE  144 ..............................
........................................................................

 iter      E             dE          RMSdq      gap      omega  full diag
   1   -109.4441554 -0.109444E+03  0.458E-02    2.00       0.0  T
   2   -109.4441566 -0.119135E-05  0.255E-02    2.01       1.0  T
   3   -109.4441562  0.338734E-06  0.531E-03    2.01       2.6  T
   4   -109.4441568 -0.565505E-06  0.260E-03    2.01       5.3  T
   5   -109.4441569 -0.886223E-07  0.124E-03    2.01      11.2  T
   6   -109.4441570 -0.537950E-07  0.352E-04    2.01      39.4  T
   7   -109.4441570 -0.281116E-08  0.174E-04    2.01      79.7  T
     SCC iter.                  ...        0 min,  0.018 sec
     gradient                   ...        0 min,  0.017 sec
 * total energy  :  -108.2605550 Eh     change       -0.2202956E-04 Eh
   gradient norm :     0.0011088 Eh/α   predicted    -0.8941116E-05 ( -59.41%)
   displ. norm   :     0.2359113 α      lambda       -0.1517336E-04
   maximum displ.:     0.1743982 α      in ANC's #1, #3, #7, ...

........................................................................
.............................. CYCLE  145 ..............................
........................................................................

 iter      E             dE          RMSdq      gap      omega  full diag
   1   -109.4444563 -0.109444E+03  0.410E-02    2.01       0.0  T
   2   -109.4444572 -0.881244E-06  0.228E-02    2.01       1.0  T
   3   -109.4444570  0.192249E-06  0.439E-03    2.01       3.2  T
   4   -109.4444573 -0.239279E-06  0.264E-03    2.01       5.2  T
   5   -109.4444575 -0.182734E-06  0.965E-04    2.01      14.4  T
   6   -109.4444575 -0.283761E-07  0.303E-04    2.01      45.8  T
     SCC iter.                  ...        0 min,  0.015 sec
     gradient                   ...        0 min,  0.017 sec
 * total energy  :  -108.2605744 Eh     change       -0.1942946E-04 Eh
   gradient norm :     0.0008459 Eh/α   predicted    -0.7778313E-05 ( -59.97%)
   displ. norm   :     0.2224612 α      lambda       -0.1274766E-04
   maximum displ.:     0.1659851 α      in ANC's #1, #3, #7, ...

........................................................................
.............................. CYCLE  146 ..............................
........................................................................

 iter      E             dE          RMSdq      gap      omega  full diag
   1   -109.4442033 -0.109444E+03  0.403E-02    2.01       0.0  T
   2   -109.4442042 -0.911467E-06  0.224E-02    2.01       1.0  T
   3   -109.4442041  0.115632E-06  0.431E-03    2.01       3.2  T
   4   -109.4442043 -0.160204E-06  0.266E-03    2.01       5.2  T
   5   -109.4442045 -0.186349E-06  0.916E-04    2.01      15.1  T
   6   -109.4442045 -0.247939E-07  0.323E-04    2.01      43.0  T
     SCC iter.                  ...        0 min,  0.015 sec
     gradient                   ...        0 min,  0.018 sec
 * total energy  :  -108.2605907 Eh     change       -0.1622699E-04 Eh
   gradient norm :     0.0010406 Eh/α   predicted    -0.6516747E-05 ( -59.84%)
   displ. norm   :     0.1738075 α      lambda       -0.1062524E-04
   maximum displ.:     0.1346347 α      in ANC's #1, #3, #7, ...

........................................................................
.............................. CYCLE  147 ..............................
........................................................................

 iter      E             dE          RMSdq      gap      omega  full diag
   1   -109.4447647 -0.109445E+03  0.316E-02    2.01       0.0  T
   2   -109.4447654 -0.679774E-06  0.176E-02    2.01       1.0  T
   3   -109.4447653  0.769795E-07  0.335E-03    2.01       4.1  T
   4   -109.4447655 -0.131483E-06  0.194E-03    2.01       7.2  T
   5   -109.4447655 -0.851240E-07  0.797E-04    2.01      17.4  T
   6   -109.4447656 -0.182767E-07  0.287E-04    2.01      48.4  T
     SCC iter.                  ...        0 min,  0.015 sec
     gradient                   ...        0 min,  0.017 sec
 * total energy  :  -108.2606035 Eh     change       -0.1281327E-04 Eh
   gradient norm :     0.0008043 Eh/α   predicted    -0.5384911E-05 ( -57.97%)
   displ. norm   :     0.1683458 α      lambda       -0.8700367E-05
   maximum displ.:     0.1306462 α      in ANC's #1, #3, #7, ...

........................................................................
.............................. CYCLE  148 ..............................
........................................................................

 iter      E             dE          RMSdq      gap      omega  full diag
   1   -109.4444347 -0.109444E+03  0.318E-02    2.00       0.0  T
   2   -109.4444353 -0.628743E-06  0.177E-02    2.01       1.0  T
   3   -109.4444348  0.491879E-06  0.449E-03    2.01       3.1  T
   4   -109.4444354 -0.563959E-06  0.230E-03    2.01       6.0  T
   5   -109.4444355 -0.119846E-06  0.887E-04    2.01      15.6  T
   6   -109.4444355 -0.225814E-07  0.305E-04    2.01      45.5  T
     SCC iter.                  ...        0 min,  0.015 sec
     gradient                   ...        0 min,  0.017 sec
 * total energy  :  -108.2606144 Eh     change       -0.1088185E-04 Eh
   gradient norm :     0.0008837 Eh/α   predicted    -0.4406313E-05 ( -59.51%)
   displ. norm   :     0.1142181 α      lambda       -0.6317016E-05
   maximum displ.:     0.0921900 α      in ANC's #1, #3, #7, ...

........................................................................
.............................. CYCLE  149 ..............................
........................................................................

 iter      E             dE          RMSdq      gap      omega  full diag
   1   -109.4446677 -0.109445E+03  0.213E-02    2.00       0.0  T
   2   -109.4446680 -0.279699E-06  0.118E-02    2.01       1.2  T
   3   -109.4446679  0.286051E-07  0.224E-03    2.01       6.2  T
   4   -109.4446680 -0.545669E-07  0.139E-03    2.01      10.0  T
   5   -109.4446680 -0.449067E-07  0.517E-04    2.01      26.8  T
   6   -109.4446680 -0.741281E-08  0.200E-04    2.01      69.2  T
     SCC iter.                  ...        0 min,  0.015 sec
     gradient                   ...        0 min,  0.017 sec
 * total energy  :  -108.2606222 Eh     change       -0.7849798E-05 Eh
   gradient norm :     0.0007345 Eh/α   predicted    -0.3181478E-05 ( -59.47%)
   displ. norm   :     0.0986670 α      lambda       -0.5496767E-05
   maximum displ.:     0.0809803 α      in ANC's #1, #3, #13, ...

........................................................................
.............................. CYCLE  150 ..............................
........................................................................

 iter      E             dE          RMSdq      gap      omega  full diag
   1   -109.4446841 -0.109445E+03  0.194E-02    2.00       0.0  T
   2   -109.4446843 -0.243588E-06  0.108E-02    2.00       1.3  T
   3   -109.4446842  0.896778E-07  0.236E-03    2.00       5.9  T
   4   -109.4446843 -0.996309E-07  0.141E-03    2.00       9.8  T
   5   -109.4446844 -0.533494E-07  0.493E-04    2.00      28.1  T
   6   -109.4446844 -0.620425E-08  0.155E-04    2.00      89.3  T
     SCC iter.                  ...        0 min,  0.015 sec
     gradient                   ...        0 min,  0.017 sec
 * total energy  :  -108.2606296 Eh     change       -0.7387910E-05 Eh
   gradient norm :     0.0006609 Eh/α   predicted    -0.2765224E-05 ( -62.57%)
   displ. norm   :     0.0986125 α      lambda       -0.5440002E-05
   maximum displ.:     0.0821070 α      in ANC's #1, #3, #13, ...
 * RMSD in coord.:     0.5530154 α      energy gain  -0.5640365E-03 Eh

generating ANC from exact Hessian ...
Using Lindh-Hessian (1995)
 Shifting diagonal of input Hessian by    9.8828625685872685E-003
 Lowest  eigenvalues of input Hessian
    0.000000    0.000000    0.000000    0.000000    0.000000    0.000000
    0.010000    0.010042    0.010115    0.010380    0.010768    0.010908
    0.011350    0.011501    0.011921    0.012217    0.012817    0.013303
 Highest eigenvalues
    2.216391    2.355921    2.392697    2.508162    3.108572    3.140808


........................................................................
.............................. CYCLE  151 ..............................
........................................................................

 iter      E             dE          RMSdq      gap      omega  full diag
   1   -109.4447751 -0.109445E+03  0.194E-02    2.00       0.0  T
   2   -109.4447754 -0.278002E-06  0.107E-02    2.00       1.3  T
   3   -109.4447751  0.252667E-06  0.309E-03    2.00       4.5  T
   4   -109.4447755 -0.332010E-06  0.129E-03    2.00      10.8  T
   5   -109.4447755 -0.144075E-07  0.689E-04    2.00      20.1  T
   6   -109.4447755 -0.166325E-07  0.177E-04    2.00      78.5  T
     SCC iter.                  ...        0 min,  0.015 sec
     gradient                   ...        0 min,  0.017 sec
 * total energy  :  -108.2606368 Eh     change       -0.7239944E-05 Eh
   gradient norm :     0.0005906 Eh/α   predicted     0.0000000E+00 (-100.00%)
   displ. norm   :     0.0154779 α      lambda       -0.7330236E-06
   maximum displ.:     0.0119322 α      in ANC's #1, #3, #2, ...

........................................................................
.............................. CYCLE  152 ..............................
........................................................................

 iter      E             dE          RMSdq      gap      omega  full diag
   1   -109.4446764 -0.109445E+03  0.419E-03    2.00       0.0  T
   2   -109.4446764 -0.322283E-07  0.231E-03    2.00       6.0  T
   3   -109.4446764  0.279192E-07  0.112E-03    2.00      12.3  T
   4   -109.4446765 -0.391947E-07  0.342E-04    2.00      40.6  T
   5   -109.4446765 -0.223828E-08  0.178E-04    2.00      77.9  T
     SCC iter.                  ...        0 min,  0.013 sec
     gradient                   ...        0 min,  0.017 sec
 * total energy  :  -108.2606387 Eh     change       -0.1824119E-05 Eh
   gradient norm :     0.0004157 Eh/α   predicted    -0.7741073E-06 ( -57.56%)
   displ. norm   :     0.0547662 α      lambda       -0.5307222E-05
   maximum displ.:     0.0373662 α      in ANC's #1, #2, #3, ...

   *** GEOMETRY OPTIMIZATION CONVERGED AFTER 152 ITERATIONS ***

------------------------------------------------------------------------
 total energy gain   :        -0.1586272 Eh      -99.5401 kcal/mol
 total RMSD          :         3.7098484 a0        1.9632 Å
 total power (kW/mol):        -2.7399723 (step)  -51.6517 (real)
------------------------------------------------------------------------

 ANCopt (total)                0 d,  0 h,  0 min,  8.063 sec
 optimizer setup                ...        0 min,  0.000 sec (  0.000%)
 model hessian                  ...        0 min,  0.034 sec (  0.421%)
 ANC generation                 ...        0 min,  0.008 sec (  0.101%)
 coordinate transformation      ...        0 min,  0.001 sec (  0.016%)
 single point calculation       ...        0 min,  7.981 sec ( 98.986%)
 optimization log               ...        0 min,  0.012 sec (  0.148%)
 hessian update                 ...        0 min,  0.003 sec (  0.041%)
 rational function              ...        0 min,  0.020 sec (  0.243%)

================
 final structure:
================
52
 xtb: 6.7.1 (6d44803)
C           -3.52852146474472        1.39371379824843       -3.71180283295202
O           -4.32951510502672        1.37681989300084       -2.54774074450902
N           -3.54925276023766        1.29453624337048       -1.42957777907666
C           -4.09702002904561        1.31641685166360       -0.26789078373837
C           -3.11438924940229        1.23548386306706        0.86035524177613
O           -3.36797084034258        1.45914729132218        2.02413830073790
N           -1.87388531337914        0.85768324400939        0.44535605199913
C           -0.76432653898009        0.80732232487259        1.32999971081498
C            0.59705458462991        1.28814820193115        0.79936149066728
O            1.00380591950926        2.24099330050371        0.21456875171009
N            1.18123403671679        0.07848635891713        1.13540222826944
C            2.46210528565715       -0.39366442749253        1.37166250994926
C            3.50717063802943        0.60426442577227        0.94142245311564
O            4.34796752002494        0.24289355286406       -0.06595411417409
O            3.55983747954584        1.70127065302550        1.39770476806402
C            2.64853665284479       -1.55407860916354        2.02871013665604
C            3.95732029139980       -2.23555443896973        2.27994608512660
S            5.46069468110667       -1.57713129797358        1.48934029180964
C            4.84156791494416       -1.07649055125978       -0.18863869592553
N            3.88790060832789       -1.98417030802573       -0.67479058593181
C            2.71779878986761       -2.22780945891394       -0.65810074114471
O            1.63927726421616       -2.62111060903650       -0.75416780502317
C            4.67692676995808       -1.12092297751723       -3.10269041436753
O            3.90674319597798       -1.22960360076792       -3.96270130997513
N            5.61894073315277       -0.91861226816316       -2.39524144302968
N            5.96497932110743       -1.10414545252191       -1.07436429160990
C            7.08069645633004       -0.24212595722424       -0.71447737123326
C            1.49644434453180       -2.34609127787679        2.58906507977663
S            0.11504804114514       -1.29966019185759        3.17332753758929
C           -0.05711463162883       -0.55477591496938        1.53089916989851
C           -5.51399775294289        1.41382042676327        0.02150897500734
C           -6.07446815175744        1.47921580707811        1.26955813042355
S           -7.78669398346538        1.56925710344552        1.17354216233000
C           -7.62313418763892        1.50438939003806       -0.59842489283807
N           -8.71460839315867        1.60313473795309       -1.39033741074645
N           -6.41614604989002        1.42415584086496       -1.01015212826076
H           -2.83183093970851        2.23583096126917       -3.69895321767221
H           -2.96613421462077        0.46183386140454       -3.81900500721505
H           -4.22688423815858        1.50193698384672       -4.53834203454229
H           -1.73895258030737        0.78513477273003       -0.55426940300017
H           -1.05370976435324        1.27519468707598        2.27707194367460
H            4.20749909318832       -2.20212765573302        3.34398374843241
H            3.87121749731792       -3.28618153427880        1.98536835153499
H            7.84765462391114       -0.38429702302778       -1.47150874091942
H            6.79742133451702        0.81224715018664       -0.66738297864478
H            7.46141138685637       -0.56525567465814        0.25219630319898
H            1.82128836886374       -2.91531661901351        3.45871407813006
H            1.08977330489258       -3.04006027184605        1.84872368460335
H           -0.37931207100035       -1.32954510386497        0.82901388939459
H           -5.57752902160150        1.48790060064844        2.21636703431482
H           -8.57263885972318        1.37794560203042       -2.36123287719021
H           -9.61028099748200        1.37955429618800       -0.99227950530147

 Bond Distances (Angstroems)
 ---------------------------
C1-O2=1.4131         C1-H37=1.0930        C1-H38=1.0937        C1-H39=1.0875        O2-C1=1.4131         O2-N3=1.3660         
N3-O2=1.3660         N3-C4=1.2845         C4-N3=1.2845         C4-C5=1.4984         C4-C31=1.4495        C5-C4=1.4984         
C5-O6=1.2119         C5-N7=1.3615         O6-C5=1.2119         N7-C5=1.3615         N7-C8=1.4199         N7-H40=1.0113        
C8-N7=1.4199         C8-C9=1.5382         C8-C30=1.5478        C8-H41=1.0953        C9-C8=1.5382         C9-O10=1.1897        
C9-N11=1.3847        O10-C9=1.1897        N11-C9=1.3847        N11-C12=1.3854       N11-C30=1.4460       C12-N11=1.3854       
C12-C13=1.5077       C12-C16=1.3465       C13-C12=1.5077       C13-O14=1.3610       C13-O15=1.1893       O14-C13=1.3610       
O14-C19=1.4140       O15-C13=1.1893       C16-C12=1.3465       C16-C17=1.4968       C16-C28=1.5062       C17-C16=1.4968       
C17-S18=1.8217       C17-H42=1.0936       C17-H43=1.0945       S18-C17=1.8217       S18-C19=1.8573       C19-O14=1.4140       
C19-S18=1.8573       C19-N20=1.4035       C19-N26=1.4308       N20-C19=1.4035       N20-C21=1.1953       C21-N20=1.1953       
C21-O22=1.1520       O22-C21=1.1520       C23-O24=1.1596       C23-N25=1.1953       O24-C23=1.1596       N25-C23=1.1953       
N25-N26=1.3780       N26-C19=1.4308       N26-N25=1.3780       N26-C27=1.4551       C27-N26=1.4551       C27-H44=1.0870       
C27-H45=1.0928       C27-H46=1.0880       C28-C16=1.5062       C28-S29=1.8288       C28-H47=1.0890       C28-H48=1.0932       
S29-C28=1.8288       S29-C30=1.8116       C30-C8=1.5478        C30-N11=1.4460       C30-S29=1.8116       C30-H49=1.0939       
C31-C4=1.4495        C31-C32=1.3697       C31-N36=1.3705       C32-C31=1.3697       C32-S33=1.7173       C32-H50=1.0693       
S33-C32=1.7173       S33-C34=1.7807       C34-S33=1.7807       C34-N35=1.3521       C34-N36=1.2778       N35-C34=1.3521       
N35-H51=1.0067       N35-H52=1.0053       N36-C31=1.3705       N36-C34=1.2778       H37-C1=1.0930        H38-C1=1.0937        
H39-C1=1.0875        H40-N7=1.0113        H41-C8=1.0953        H42-C17=1.0936       H43-C17=1.0945       H44-C27=1.0870       
H45-C27=1.0928       H46-C27=1.0880       H47-C28=1.0890       H48-C28=1.0932       H49-C30=1.0939       H50-C32=1.0693       
H51-N35=1.0067       H52-N35=1.0053       
 C  H  Rav=1.0901 sigma=0.0066  Rmin=1.0693  Rmax=1.0953    13
 C  C  Rav=1.4734 sigma=0.0672  Rmin=1.3465  Rmax=1.5478     9
 N  H  Rav=1.0078 sigma=0.0026  Rmin=1.0053  Rmax=1.0113     3
 N  C  Rav=1.3545 sigma=0.0822  Rmin=1.1953  Rmax=1.4551    14
 N  N  Rav=1.3780 sigma=0.0000  Rmin=1.3780  Rmax=1.3780     1
 O  C  Rav=1.2613 sigma=0.1069  Rmin=1.1520  Rmax=1.4140     8
 O  N  Rav=1.3660 sigma=0.0000  Rmin=1.3660  Rmax=1.3660     1
 S  C  Rav=1.8029 sigma=0.0445  Rmin=1.7173  Rmax=1.8573     6

 selected bond angles (degree)
 --------------------
H37-C1-O2=111.15               H38-C1-O2=111.22               H38-C1-H37=109.26              H39-C1-O2=105.26               
H39-C1-H37=109.97              H39-C1-H38=109.91              N3-O2-C1=110.56                C4-N3-O2=119.72                
C5-C4-N3=113.60                C31-C4-N3=126.77               C31-C4-C5=119.63               O6-C5-C4=125.16                
N7-C5-C4=112.52                N7-C5-O6=122.31                C8-N7-C5=122.13                H40-N7-C5=116.28               
H40-N7-C8=120.60               C9-C8-N7=117.75                C30-C8-N7=117.98               C30-C8-C9= 85.15               
H41-C8-N7=108.49               H41-C8-C9=113.49               H41-C8-C30=112.61              O10-C9-C8=136.26               
N11-C9-C8= 90.95               N11-C9-O10=132.43              

 selected dihedral angles (degree)
 ---------------------------------
N3-O2-C1-H37=301.33           N3-O2-C1-H38= 63.31           N3-O2-C1-H39=182.30           C4-N3-O2-C1=177.46            
C5-C4-N3-O2=180.73            C31-C4-N3-O2=  0.46           O6-C5-C4-N3=167.10            O6-C5-C4-C31=347.36           
N7-C5-C4-N3=346.26            N7-C5-C4-C31=166.51           C8-N7-C5-C4=175.45            C8-N7-C5-O6=354.64            
H40-N7-C5-C4=  6.78           H40-N7-C5-O6=185.96           C9-C8-N7-C5=219.64            C9-C8-N7-H40= 27.84           
C30-C8-N7-C5=119.78           C30-C8-N7-H40=287.97          H41-C8-N7-C5=350.24           H41-C8-N7-H40=158.44          
O10-C9-C8-N7= 48.69           O10-C9-C8-C30=167.86          O10-C9-C8-H41=280.43          N11-C9-C8-N7=235.27           
N11-C9-C8-C30=354.44          N11-C9-C8-H41=107.01          
           -------------------------------------------------
          |                Final Singlepoint                |
           -------------------------------------------------

          ...................................................
          :                      SETUP                      :
          :.................................................:
          :  # basis functions                 178          :
          :  # atomic orbitals                 175          :
          :  # shells                           91          :
          :  # electrons                       188          :
          :  max. iterations                   250          :
          :  Hamiltonian                  GFN2-xTB          :
          :  restarted?                      false          :
          :  GBSA solvation                  false          :
          :  PC potential                    false          :
          :  electronic temp.          300.0000000     K    :
          :  accuracy                    1.0000000          :
          :  -> integral cutoff          0.2500000E+02      :
          :  -> integral neglect         0.1000000E-07      :
          :  -> SCF convergence          0.1000000E-05 Eh   :
          :  -> wf. convergence          0.1000000E-03 e    :
          :  Broyden damping             0.4000000          :
          :  net charge                          0          :
          :  unpaired electrons                  0          :
          ...................................................

 iter      E             dE          RMSdq      gap      omega  full diag
   1   -109.4446765 -0.109445E+03  0.655E-05    2.00       0.0  T
   2   -109.4446765 -0.113261E-10  0.571E-05    2.00     242.8  T
   3   -109.4446765 -0.133141E-09  0.207E-05    2.00     669.2  T

   *** convergence criteria satisfied after 3 iterations ***

         #    Occupation            Energy/Eh            Energy/eV
      -------------------------------------------------------------
         1        2.0000           -0.8017846             -21.8177
       ...           ...                  ...                  ...
        88        2.0000           -0.4123347             -11.2202
        89        2.0000           -0.4108997             -11.1811
        90        2.0000           -0.4007329             -10.9045
        91        2.0000           -0.4002960             -10.8926
        92        2.0000           -0.3943447             -10.7307
        93        2.0000           -0.3892545             -10.5922
        94        2.0000           -0.3730698             -10.1517 (HOMO)
        95                         -0.2995149              -8.1502 (LUMO)
        96                         -0.2913692              -7.9286
        97                         -0.2803556              -7.6289
        98                         -0.2698463              -7.3429
        99                         -0.2581804              -7.0254
       ...                                ...                  ...
       175                          1.2556803              34.1688
      -------------------------------------------------------------
                  HL-Gap            0.0735549 Eh            2.0015 eV
             Fermi-level           -0.3362924 Eh           -9.1510 eV

 SCC (total)                   0 d,  0 h,  0 min,  0.029 sec
 SCC setup                      ...        0 min,  0.000 sec (  0.376%)
 Dispersion                     ...        0 min,  0.000 sec (  0.464%)
 classical contributions        ...        0 min,  0.000 sec (  0.116%)
 integral evaluation            ...        0 min,  0.004 sec ( 13.956%)
 iterations                     ...        0 min,  0.008 sec ( 25.636%)
 molecular gradient             ...        0 min,  0.017 sec ( 58.530%)
 printout                       ...        0 min,  0.000 sec (  0.920%)

         :::::::::::::::::::::::::::::::::::::::::::::::::::::
         ::                     SUMMARY                     ::
         :::::::::::::::::::::::::::::::::::::::::::::::::::::
         :: total energy            -108.260638664877 Eh    ::
         :: gradient norm              0.000413873636 Eh/a0 ::
         :: HOMO-LUMO gap              2.001530343065 eV    ::
         ::.................................................::
         :: SCC energy              -109.444100106748 Eh    ::
         :: -> isotropic ES            0.186767981957 Eh    ::
         :: -> anisotropic ES          0.002777849572 Eh    ::
         :: -> anisotropic XC          0.044359433107 Eh    ::
         :: -> dispersion             -0.071939469341 Eh    ::
         :: repulsion energy           1.183461441871 Eh    ::
         :: add. restraining           0.000000000000 Eh    ::
         :: total charge              -0.000000000000 e     ::
         :::::::::::::::::::::::::::::::::::::::::::::::::::::

           -------------------------------------------------
          |                Property Printout                |
           -------------------------------------------------

    * Orbital Energies and Occupations

         #    Occupation            Energy/Eh            Energy/eV
      -------------------------------------------------------------
         1        2.0000           -0.8017846             -21.8177
       ...           ...                  ...                  ...
        82        2.0000           -0.4555116             -12.3951
        83        2.0000           -0.4512576             -12.2793
        84        2.0000           -0.4270773             -11.6214
        85        2.0000           -0.4242544             -11.5446
        86        2.0000           -0.4196947             -11.4205
        87        2.0000           -0.4188583             -11.3977
        88        2.0000           -0.4123347             -11.2202
        89        2.0000           -0.4108997             -11.1811
        90        2.0000           -0.4007329             -10.9045
        91        2.0000           -0.4002960             -10.8926
        92        2.0000           -0.3943447             -10.7307
        93        2.0000           -0.3892545             -10.5922
        94        2.0000           -0.3730698             -10.1517 (HOMO)
        95                         -0.2995149              -8.1502 (LUMO)
        96                         -0.2913692              -7.9286
        97                         -0.2803556              -7.6289
        98                         -0.2698463              -7.3429
        99                         -0.2581804              -7.0254
       100                         -0.2471599              -6.7256
       101                         -0.2430594              -6.6140
       102                         -0.2400750              -6.5328
       103                         -0.2258486              -6.1457
       104                         -0.2235281              -6.0825
       105                         -0.2133079              -5.8044
       ...                                ...                  ...
       175                          1.2556803              34.1688
      -------------------------------------------------------------
                  HL-Gap            0.0735549 Eh            2.0015 eV
             Fermi-level           -0.3362924 Eh           -9.1510 eV

     #   Z          covCN         q      C6AA      α(0)
     1   6          3.653     0.025    20.451     6.494
     2   8          1.771    -0.178    16.974     5.563
     3   7          1.877    -0.116    24.291     7.306
     4   6          2.886     0.049    26.903     8.504
     5   6          2.771     0.270    22.442     7.759
     6   8          0.858    -0.412    21.929     6.278
     7   7          2.691    -0.172    24.721     7.384
     8   6          3.997     0.019    20.187     6.383
     9   6          3.055     0.278    22.271     7.739
    10   8          0.856    -0.331    20.342     6.047
    11   7          2.985    -0.098    23.155     7.147
    12   6          2.878     0.018    27.596     8.612
    13   6          2.708     0.369    20.739     7.454
    14   8          1.719    -0.297    18.940     5.876
    15   8          0.857    -0.297    19.734     5.956
    16   6          2.982    -0.023    28.560     8.766
    17   6          3.801    -0.017    20.876     6.505
    18  16          2.044    -0.173   148.375    20.501
    19   6          3.673     0.327    15.949     5.723
    20   7          1.863    -0.232    26.936     7.693
    21   6          1.773     0.342    23.642     7.861
    22   8          0.856    -0.241    18.744     5.805
    23   6          1.772     0.302    24.411     7.988
    24   8          0.856    -0.263    19.119     5.862
    25   7          1.921    -0.130    24.587     7.352
    26   7          2.863    -0.055    22.308     7.015
    27   6          3.708    -0.054    21.688     6.656
    28   6          3.804    -0.018    20.898     6.508
    29  16          2.008    -0.150   147.397    20.434
    30   6          4.092     0.073    19.287     6.238
    31   6          3.204     0.073    25.816     8.276
    32   6          2.919    -0.031    28.766     8.795
    33  16          2.253    -0.082   144.486    20.231
    34   6          2.945     0.185    24.045     8.042
    35   7          2.662    -0.259    26.732     7.679
    36   7          1.947    -0.264    27.692     7.803
    37   1          0.924     0.057     2.232     2.336
    38   1          0.924     0.052     2.297     2.370
    39   1          0.925     0.072     2.066     2.248
    40   1          0.860     0.200     1.107     1.648
    41   1          0.924     0.115     1.653     2.010
    42   1          0.925     0.094     1.842     2.122
    43   1          0.924     0.068     2.105     2.269
    44   1          0.925     0.087     1.908     2.160
    45   1          0.924     0.065     2.139     2.287
    46   1          0.925     0.081     1.972     2.196
    47   1          0.925     0.075     2.027     2.226
    48   1          0.924     0.067     2.115     2.274
    49   1          0.924     0.064     2.153     2.295
    50   1          0.927     0.082     1.961     2.190
    51   1          0.860     0.197     1.123     1.660
    52   1          0.860     0.188     1.171     1.695

 Mol. C6AA /au·bohr⁶  :      45953.502479
 Mol. C8AA /au·bohr⁸  :    1245428.998968
 Mol. α(0) /au        :        330.225020


Wiberg/Mayer (AO) data.
largest (>0.10) Wiberg bond orders for each atom

 ---------------------------------------------------------------------------
     #   Z sym  total        # sym  WBO       # sym  WBO       # sym  WBO
 ---------------------------------------------------------------------------
     1   6      3.938 --     2      0.984    37      0.977    38      0.977
                            39      0.976
     2   8      2.260 --     3      1.064     1      0.984     4      0.101
     3   7      3.030 --     4      1.670     2      1.064
     4   6      3.977 --     3      1.670    31      1.089     5      0.973
                             2      0.101
     5   6      3.950 --     6      1.688     7      1.206     4      0.973
     6   8      2.031 --     5      1.688     7      0.186
     7   7      3.439 --     5      1.206     8      1.025    40      0.916
                             6      0.186
     8   6      3.966 --     7      1.025    30      0.946    41      0.932
                             9      0.911
     9   6      3.943 --    10      1.807    11      1.109     8      0.911
    10   8      2.143 --     9      1.807    11      0.169
    11   7      3.534 --     9      1.109    12      1.092    30      0.978
                            10      0.169
    12   6      3.961 --    16      1.691    11      1.092    13      0.944
    13   6      3.918 --    15      1.850    14      1.040    12      0.944
    14   8      2.270 --    13      1.040    19      0.922    15      0.140
    15   8      2.141 --    13      1.850    14      0.140
    16   6      3.977 --    12      1.691    17      1.017    28      1.011
    17   6      3.972 --    16      1.017    18      0.986    43      0.958
                            42      0.943
    18  16      2.109 --    17      0.986    19      0.889
    19   6      3.931 --    26      1.005    20      1.004    14      0.922
                            18      0.889
    20   7      3.371 --    21      1.916    19      1.004    22      0.360
    21   6      3.945 --    22      1.934    20      1.916
    22   8      2.363 --    21      1.934    20      0.360
    23   6      3.943 --    25      1.935    24      1.899
    24   8      2.327 --    23      1.899    25      0.368
    25   7      3.356 --    23      1.935    26      0.999    24      0.368
    26   7      3.212 --    19      1.005    25      0.999    27      0.981
    27   6      3.954 --    26      0.981    45      0.977    44      0.977
                            46      0.967
    28   6      3.981 --    16      1.011    29      0.982    47      0.964
                            48      0.954
    29  16      2.101 --    28      0.982    30      0.969
    30   6      3.950 --    11      0.978    29      0.969    49      0.957
                             8      0.946
    31   6      3.976 --    32      1.540    36      1.178     4      1.089
    32   6      3.942 --    31      1.540    33      1.189    50      0.959
    33  16      2.584 --    32      1.189    34      1.036    36      0.133
    34   6      3.958 --    36      1.597    35      1.215    33      1.036
    35   7      3.306 --    34      1.215    52      0.947    51      0.938
                            36      0.112
    36   7      3.122 --    34      1.597    31      1.178    33      0.133
                            35      0.112
    37   1      0.995 --     1      0.977
    38   1      0.995 --     1      0.977
    39   1      0.994 --     1      0.976
    40   1      0.960 --     7      0.916
    41   1      0.986 --     8      0.932
    42   1      0.988 --    17      0.943
    43   1      0.993 --    17      0.958
    44   1      0.992 --    27      0.977
    45   1      0.996 --    27      0.977
    46   1      0.993 --    27      0.967
    47   1      0.993 --    28      0.964
    48   1      0.993 --    28      0.954
    49   1      0.996 --    30      0.957
    50   1      0.993 --    32      0.959
    51   1      0.961 --    35      0.938
    52   1      0.964 --    35      0.947
 ---------------------------------------------------------------------------

Topologies differ in total number of bonds
Writing topology from bond orders to xtbtopo.mol

molecular dipole:
                 x           y           z       tot (Debye)
 q only:        0.007      -2.052      -0.476
   full:       -0.547      -2.321      -0.755       6.358
molecular quadrupole (traceless):
                xx          xy          yy          xz          yz          zz
 q only:       45.047     -13.409     -26.312      30.053     -18.431     -18.735
  q+dip:       36.339      -8.255     -17.991      32.259     -17.407     -18.348
   full:       34.824      -9.109     -17.571      31.882     -18.160     -17.253

           -------------------------------------------------
          |                Geometry Summary                 |
           -------------------------------------------------

      molecular mass/u    :      552.5641205
   center of mass at/Å    :        0.0313473       0.0278437       0.1918310
  moments of inertia/u·Å² :        0.2390033E+04   0.1258114E+05   0.1380178E+05
rotational constants/cm⁻¹ :        0.7053304E-02   0.1339912E-02   0.1221410E-02

 * 44 selected distances

     #   Z          #   Z                                           value/Å
     1   6          2   8                                         1.4131232
     3   7          4   6                                         1.2845407
     5   6          6   8                                         1.2119077
     5   6          7   7                                         1.3615462
     7   7          8   6                                         1.4199478
     9   6         10   8                                         1.1896820
     9   6         11   7                                         1.3847278
    11   7         12   6                                         1.3854157
    13   6         14   8                                         1.3610056
    13   6         15   8                                         1.1892814
    12   6         16   6                                         1.3464879
    14   8         19   6                                         1.4140253
    19   6         20   7                                         1.4034628
    20   7         21   6                                         1.1953147
    21   6         22   8                                         1.1520085
    23   6         24   8                                         1.1595746
    23   6         25   7                                         1.1953260
    19   6         26   7                                         1.4308488
    26   7         27   6                                         1.4551362
     8   6         30   6                                         1.5478441
    11   7         30   6                                         1.4460106
    29  16         30   6                                         1.8116468 (max)
     4   6         31   6                                         1.4495054
    31   6         32   6                                         1.3696827
    32   6         33  16                                         1.7172782
    34   6         35   7                                         1.3521066
    31   6         36   7                                         1.3705121
    34   6         36   7                                         1.2778018
     1   6         37   1                                         1.0930253
     1   6         38   1                                         1.0936966
     1   6         39   1                                         1.0874696
     7   7         40   1                                         1.0112969
     8   6         41   1                                         1.0952594
    17   6         42   1                                         1.0935644
    17   6         43   1                                         1.0945352
    27   6         44   1                                         1.0869840
    27   6         45   1                                         1.0927788
    27   6         46   1                                         1.0880326
    28   6         47   1                                         1.0889586
    28   6         48   1                                         1.0931971
    30   6         49   1                                         1.0939477
    32   6         50   1                                         1.0693321
    35   7         51   1                                         1.0067292
    35   7         52   1                                         1.0053198 (min)

 * 6 distinct bonds (by element types)

   Z      Z             #   av. dist./Å        max./Å        min./Å
   1 H    6 C          13     1.0900601     1.0952594     1.0693321
   6 C    6 C           4     1.4283800     1.5478441     1.3464879
   1 H    7 N           3     1.0077820     1.0112969     1.0053198
   6 C    7 N          14     1.3544784     1.4551362     1.1953147
   6 C    8 O           8     1.2613260     1.4140253     1.1520085
   6 C   16 S           2     1.7644625     1.8116468     1.7172782


optimized geometry written to: xtbopt.xyz


           -------------------------------------------------
          | TOTAL ENERGY             -108.260638664877 Eh   |
          | GRADIENT NORM               0.000413873636 Eh/α |
          | HOMO-LUMO GAP               2.001530343065 eV   |
           -------------------------------------------------

------------------------------------------------------------------------
 * finished run on 2026/04/08 at 14:24:25.973     
------------------------------------------------------------------------
 total:
 * wall-time:     0 d,  0 h,  0 min,  8.199 sec
 *  cpu-time:     0 d,  0 h,  0 min,  7.376 sec
 * ratio c/w:     0.900 speedup
 SCF:
 * wall-time:     0 d,  0 h,  0 min,  0.099 sec
 *  cpu-time:     0 d,  0 h,  0 min,  0.098 sec
 * ratio c/w:     0.997 speedup
 ANC optimizer:
 * wall-time:     0 d,  0 h,  0 min,  8.094 sec
 *  cpu-time:     0 d,  0 h,  0 min,  7.272 sec
 * ratio c/w:     0.899 speedup

