8
 energy: -32.663465543753 gnorm: 0.000052770807 xtb: 6.7.1 (6d44803)
F           -1.09100963059819        0.31670205304037        1.34318905541770
C           -0.76843326717166        0.10808128546227        0.07220954408234
F           -1.15860018339142        1.15984911777991       -0.63808704227477
F           -1.43041426183434       -0.95895006660593       -0.35929048624650
C            0.76843351377287       -0.10808154247049       -0.07220982037365
F            1.43041448350987        0.95894953427960        0.35929094470699
F            1.15860028133637       -1.15984981384629        0.63808620233542
F            1.09101006437650       -0.31670156763943       -1.34318939764755
