      -----------------------------------------------------------      
     |                   =====================                   |     
     |                           x T B                           |     
     |                   =====================                   |     
     |                         S. Grimme                         |     
     |          Mulliken Center for Theoretical Chemistry        |     
     |                    University of Bonn                     |     
      -----------------------------------------------------------      

   * xtb version 6.7.1 (6d44803) compiled by 'michele@Mac.homenet.telecomitalia.it' on 2026-04-04

   xtb is free software: you can redistribute it and/or modify it under
   the terms of the GNU Lesser General Public License as published by
   the Free Software Foundation, either version 3 of the License, or
   (at your option) any later version.
   
   xtb is distributed in the hope that it will be useful,
   but WITHOUT ANY WARRANTY; without even the implied warranty of
   MERCHANTABILITY or FITNESS FOR A PARTICULAR PURPOSE.  See the
   GNU Lesser General Public License for more details.
   
   Cite this work as:
   * C. Bannwarth, E. Caldeweyher, S. Ehlert, A. Hansen, P. Pracht,
     J. Seibert, S. Spicher, S. Grimme, WIREs Comput. Mol. Sci., 2020, 11,
     e01493. DOI: 10.1002/wcms.1493
   
   for GFN2-xTB:
   * C. Bannwarth, S. Ehlert and S. Grimme., J. Chem. Theory Comput., 2019,
     15, 1652-1671. DOI: 10.1021/acs.jctc.8b01176
   for GFN1-xTB:
   * S. Grimme, C. Bannwarth, P. Shushkov, J. Chem. Theory Comput., 2017,
     13, 1989-2009. DOI: 10.1021/acs.jctc.7b00118
   for GFN0-xTB:
   * P. Pracht, E. Caldeweyher, S. Ehlert, S. Grimme, ChemRxiv, 2019, preprint.
     DOI: 10.26434/chemrxiv.8326202.v1
   for GFN-FF:
   * S. Spicher and S. Grimme, Angew. Chem. Int. Ed., 2020, 59, 15665-15673.
     DOI: 10.1002/anie.202004239
   
   for ALPB and GBSA implicit solvation:
   * S. Ehlert, M. Stahn, S. Spicher, S. Grimme, J. Chem. Theory Comput.,
     2021, 17, 4250-4261. DOI: 10.1021/acs.jctc.1c00471
   
   for ddCOSMO and CPCM-X implicit solvation:
   * M. Stahn, S. Ehlert, S. Grimme, J. Phys. Chem. A,
     2023, XX, XXXX-XXXX. DOI: 10.1021/acs.jpca.3c04382
   
   for DFT-D4:
   * E. Caldeweyher, C. Bannwarth and S. Grimme, J. Chem. Phys., 2017,
     147, 034112. DOI: 10.1063/1.4993215
   * E. Caldeweyher, S. Ehlert, A. Hansen, H. Neugebauer, S. Spicher,
     C. Bannwarth and S. Grimme, J. Chem. Phys., 2019, 150, 154122.
     DOI: 10.1063/1.5090222
   * E. Caldeweyher, J.-M. Mewes, S. Ehlert and S. Grimme, Phys. Chem. Chem. Phys.
     2020, 22, 8499-8512. DOI: 10.1039/D0CP00502A
   
   for sTDA-xTB:
   * S. Grimme and C. Bannwarth, J. Chem. Phys., 2016, 145, 054103.
     DOI: 10.1063/1.4959605
   
   in the mass-spec context:
   * V. Asgeirsson, C. Bauer and S. Grimme, Chem. Sci., 2017, 8, 4879.
     DOI: 10.1039/c7sc00601b
   * J. Koopman and S. Grimme, ACS Omega 2019, 4, 12, 15120-15133.
     DOI: 10.1021/acsomega.9b02011
   
   for metadynamics refer to:
   * S. Grimme, J. Chem. Theory Comput., 2019, 155, 2847-2862
     DOI: 10.1021/acs.jctc.9b00143
   
   for SPH calculations refer to:
   * S. Spicher and S. Grimme, J. Chem. Theory Comput., 2021, 17, 1701-1714
     DOI: 10.1021/acs.jctc.0c01306
   
   for ONIOM refer to:
   * C. Plett, A. Katbashev, S. Ehlert, S. Grimme, M. Bursch,
     Phys. Chem. Chem. Phys., 2023, 25, 17860-17868. DOI: 10.1039/D3CP02178E
   
   for DIPRO refer to:
   * J. Kohn, N. Gildemeister, S. Grimme, D. Fazzi, A. Hansen,
     J. Chem. Phys. 159, 144106 (2023). DOI: 10.1063/5.0167484
   
   for PTB refer to:
   * S. Grimme, M. Mueller, A. Hansen, J. Chem. Phys., 2023, 158, 124111.
     DOI: 10.1063/5.0137838
   
   with help from (in alphabetical order)
   P. Atkinson, C. Bannwarth, F. Bohle, G. Brandenburg, E. Caldeweyher
   M. Checinski, S. Dohm, S. Ehlert, S. Ehrlich, I. Gerasimov, C. Hölzer
   A. Katbashev, J. Kohn, J. Koopman, C. Lavigne, S. Lehtola, F. März, M. Müller,
   F. Musil, H. Neugebauer, J. Pisarek, C. Plett, P. Pracht, F. Pultar,
   J. Seibert, P. Shushkov, S. Spicher, M. Stahn, M. Steiner, T. Strunk,
   J. Stückrath, T. Rose, and J. Unsleber
   
 * started run on 2026/04/08 at 14:24:17.758     
   ID    Z sym.   atoms
    1    9 F      1, 3-5
    2    6 C      2

           -------------------------------------------------
          |                Calculation Setup                |
           -------------------------------------------------

          program call               : xtb 6045.xyz --opt --gfn2 --chrg 0 --cmaes --maxstep 0.2 --cycles 1000 --gfniter 3000 --namespace 6045
          calculation namespace      : 6045
          coordinate file            : 6045.xyz
          omp threads                :                     1

########################################################################
[WARNING] Please study the warnings concerning your input carefully
-3- prog_main_parseArguments: Unknown option '--gfniter' provided
-2- prog_main_parseArguments: Unknown option '--maxstep' provided
-1- prog_main_parseArguments: Unknown option '--cmaes' provided
########################################################################

           -------------------------------------------------
          |                 G F N 2 - x T B                 |
           -------------------------------------------------

        Reference                      10.1021/acs.jctc.8b01176
      * Hamiltonian:
        H0-scaling (s, p, d)           1.850000    2.230000    2.230000
        zeta-weighting                 0.500000
      * Dispersion:
        s8                             2.700000
        a1                             0.520000
        a2                             5.000000
        s9                             5.000000
      * Repulsion:
        kExp                           1.500000    1.000000
        rExp                           1.000000
      * Coulomb:
        alpha                          2.000000
        third order                    shell-resolved
        anisotropic                    true
        a3                             3.000000
        a5                             4.000000
        cn-shift                       1.200000
        cn-exp                         4.000000
        max-rad                        5.000000

q/qsh data taken from xtbrestart
CAMM data taken from xtbrestart

          ...................................................
          :                      SETUP                      :
          :.................................................:
          :  # basis functions                  20          :
          :  # atomic orbitals                  20          :
          :  # shells                           10          :
          :  # electrons                        32          :
          :  max. iterations                   250          :
          :  Hamiltonian                  GFN2-xTB          :
          :  restarted?                       true          :
          :  GBSA solvation                  false          :
          :  PC potential                    false          :
          :  electronic temp.          300.0000000     K    :
          :  accuracy                    1.0000000          :
          :  -> integral cutoff          0.2500000E+02      :
          :  -> integral neglect         0.1000000E-07      :
          :  -> SCF convergence          0.1000000E-05 Eh   :
          :  -> wf. convergence          0.1000000E-03 e    :
          :  Broyden damping             0.4000000          :
          :  net charge                          0          :
          :  unpaired electrons                  0          :
          ...................................................

 iter      E             dE          RMSdq      gap      omega  full diag
   1    -21.1165942 -0.211166E+02  0.339E-01   15.73       0.0  T
   2    -21.1168281 -0.233892E-03  0.207E-01   15.79       1.0  T
   3    -21.1168401 -0.119620E-04  0.112E-01   15.78       1.0  T
   4    -21.1168415 -0.145197E-05  0.775E-03   15.79       5.8  T
   5    -21.1168415 -0.792442E-08  0.447E-04   15.79     100.0  T
   6    -21.1168415 -0.961009E-11  0.184E-04   15.79     243.3  T

   *** convergence criteria satisfied after 6 iterations ***

         #    Occupation            Energy/Eh            Energy/eV
      -------------------------------------------------------------
         1        2.0000           -0.9383626             -25.5341
       ...           ...                  ...                  ...
        10        2.0000           -0.6033133             -16.4170
        11        2.0000           -0.5893104             -16.0360
        12        2.0000           -0.5893104             -16.0360
        13        2.0000           -0.5893104             -16.0360
        14        2.0000           -0.5887655             -16.0211
        15        2.0000           -0.5887655             -16.0211
        16        2.0000           -0.5887655             -16.0211 (HOMO)
        17                         -0.0086578              -0.2356 (LUMO)
        18                          0.0309999               0.8436
        19                          0.0310010               0.8436
        20                          0.0310014               0.8436
      -------------------------------------------------------------
                  HL-Gap            0.5801076 Eh           15.7855 eV
             Fermi-level           -0.2987116 Eh           -8.1284 eV

 SCC (total)                   0 d,  0 h,  0 min,  0.001 sec
 SCC setup                      ...        0 min,  0.000 sec (  3.977%)
 Dispersion                     ...        0 min,  0.000 sec (  1.395%)
 classical contributions        ...        0 min,  0.000 sec (  0.386%)
 integral evaluation            ...        0 min,  0.000 sec ( 15.286%)
 iterations                     ...        0 min,  0.000 sec ( 41.941%)
 molecular gradient             ...        0 min,  0.000 sec ( 33.749%)
 printout                       ...        0 min,  0.000 sec (  2.998%)

         :::::::::::::::::::::::::::::::::::::::::::::::::::::
         ::                     SUMMARY                     ::
         :::::::::::::::::::::::::::::::::::::::::::::::::::::
         :: total energy             -21.075484688313 Eh    ::
         :: gradient norm              0.053457298673 Eh/a0 ::
         :: HOMO-LUMO gap             15.785531331735 eV    ::
         ::.................................................::
         :: SCC energy               -21.116841455602 Eh    ::
         :: -> isotropic ES            0.056071183292 Eh    ::
         :: -> anisotropic ES          0.005922012711 Eh    ::
         :: -> anisotropic XC         -0.026422753286 Eh    ::
         :: -> dispersion             -0.001530799789 Eh    ::
         :: repulsion energy           0.041356767289 Eh    ::
         :: add. restraining           0.000000000000 Eh    ::
         :: total charge               0.000000000000 e     ::
         :::::::::::::::::::::::::::::::::::::::::::::::::::::

      ----------------------------------------------------------- 
     |                   =====================                   |
     |                        A N C O P T                        |
     |                   =====================                   |
     |               Approximate Normal Coordinate               |
     |                Rational Function Optimizer                |
      ----------------------------------------------------------- 

          ...................................................
          :                      SETUP                      :
          :.................................................:
          :   optimization level            normal          :
          :   max. optcycles                  1000          :
          :   ANC micro-cycles                  20          :
          :   degrees of freedom                 9          :
          :.................................................:
          :   RF solver                   davidson          :
          :   write xtbopt.log                true          :
          :   linear?                        false          :
          :   energy convergence         0.5000000E-05 Eh   :
          :   grad. convergence          0.1000000E-02 Eh/α :
          :   maximum RF displ.          1.0000000          :
          :   Hlow (freq-cutoff)         0.1000000E-01      :
          :   Hmax (freq-cutoff)         5.0000000          :
          :   S6 in model hess.         20.0000000          :
          ...................................................

generating ANC from exact Hessian ...
Using Lindh-Hessian (1995)
 Shifting diagonal of input Hessian by    0.0000000000000000     
 Lowest  eigenvalues of input Hessian
    0.000000    0.000000    0.000000    0.000000    0.000000    0.000000
    0.204834    0.204834    0.277527    0.277527    0.277527    0.793776
    1.768275    1.768277    1.768278
 Highest eigenvalues
    0.277527    0.277527    0.793776    1.768275    1.768277    1.768278


........................................................................
.............................. CYCLE    1 ..............................
........................................................................

 iter      E             dE          RMSdq      gap      omega  full diag
   1    -21.1168415 -0.211168E+02  0.201E-07   15.79       0.0  T
   2    -21.1168415  0.000000E+00  0.797E-08   15.79  100000.0  T
   3    -21.1168415 -0.106581E-13  0.447E-08   15.79  100000.0  T
     SCC iter.                  ...        0 min,  0.000 sec
     gradient                   ...        0 min,  0.000 sec
 * total energy  :   -21.0754847 Eh     change       -0.2007283E-11 Eh
   gradient norm :     0.0534572 Eh/α   predicted     0.0000000E+00 (-100.00%)
   displ. norm   :     0.0670428 α      lambda       -0.3583924E-02
   maximum displ.:     0.0670428 α      in ANC's #6, #1, #2, ...

........................................................................
.............................. CYCLE    2 ..............................
........................................................................

 iter      E             dE          RMSdq      gap      omega  full diag
   1    -21.1261271 -0.211261E+02  0.200E-01   17.12       0.0  T
   2    -21.1262039 -0.768098E-04  0.121E-01   17.09       1.0  T
   3    -21.1262068 -0.292354E-05  0.642E-02   17.09       1.0  T
   4    -21.1262073 -0.446747E-06  0.448E-03   17.09      10.0  T
   5    -21.1262073 -0.233584E-08  0.197E-04   17.09     226.8  T
   6    -21.1262073 -0.726175E-11  0.985E-05   17.09     454.2  T
     SCC iter.                  ...        0 min,  0.000 sec
     gradient                   ...        0 min,  0.000 sec
 * total energy  :   -21.0780571 Eh     change       -0.2572377E-02 Eh
   gradient norm :     0.0226159 Eh/α   predicted    -0.1800014E-02 ( -30.03%)
   displ. norm   :     0.0490440 α      lambda       -0.1109171E-02
   maximum displ.:     0.0490440 α      in ANC's #6, #1, #2, ...

........................................................................
.............................. CYCLE    3 ..............................
........................................................................

 iter      E             dE          RMSdq      gap      omega  full diag
   1    -21.1323078 -0.211323E+02  0.149E-01   18.15       0.0  T
   2    -21.1323475 -0.397278E-04  0.906E-02   18.12       1.0  T
   3    -21.1323487 -0.121642E-05  0.467E-02   18.12       1.0  T
   4    -21.1323489 -0.220666E-06  0.324E-03   18.12      13.8  T
   5    -21.1323489 -0.123494E-08  0.136E-04   18.12     327.9  T
   6    -21.1323489 -0.188294E-11  0.692E-05   18.12     645.9  T
     SCC iter.                  ...        0 min,  0.000 sec
     gradient                   ...        0 min,  0.000 sec
 * total energy  :   -21.0785577 Eh     change       -0.5006642E-03 Eh
   gradient norm :     0.0025901 Eh/α   predicted    -0.5559208E-03 (  11.04%)
   displ. norm   :     0.0050395 α      lambda       -0.1305557E-04
   maximum displ.:     0.0050395 α      in ANC's #6, #1, #3, ...

........................................................................
.............................. CYCLE    4 ..............................
........................................................................

 iter      E             dE          RMSdq      gap      omega  full diag
   1    -21.1317468 -0.211317E+02  0.154E-02   18.01       0.0  T
   2    -21.1317473 -0.426917E-06  0.942E-03   18.01       4.7  T
   3    -21.1317473 -0.133755E-07  0.486E-03   18.01       9.2  T
   4    -21.1317473 -0.241470E-08  0.336E-04   18.01     133.2  T
   5    -21.1317473 -0.134719E-10  0.123E-05   18.01    3627.1  T
     SCC iter.                  ...        0 min,  0.000 sec
     gradient                   ...        0 min,  0.000 sec
 * total energy  :   -21.0785640 Eh     change       -0.6240178E-05 Eh
   gradient norm :     0.0001093 Eh/α   predicted    -0.6526519E-05 (   4.59%)
   displ. norm   :     0.0003060 α      lambda       -0.2461759E-07
   maximum displ.:     0.0003060 α      in ANC's #6, #1, #2, ...

........................................................................
.............................. CYCLE    5 ..............................
........................................................................

 iter      E             dE          RMSdq      gap      omega  full diag
   1    -21.1317840 -0.211318E+02  0.936E-04   18.02       0.0  T
   2    -21.1317840 -0.156984E-08  0.571E-04   18.02      78.3  T
   3    -21.1317840 -0.491553E-10  0.295E-04   18.02     151.5  T
     SCC iter.                  ...        0 min,  0.000 sec
     gradient                   ...        0 min,  0.000 sec
 * total energy  :   -21.0785640 Eh     change       -0.8463921E-08 Eh
   gradient norm :     0.0000545 Eh/α   predicted    -0.1114548E-07 (  31.68%)
   displ. norm   :     0.0001019 α      lambda       -0.6560843E-08
   maximum displ.:     0.0001019 α      in ANC's #6, #1, #8, ...

   *** GEOMETRY OPTIMIZATION CONVERGED AFTER 5 ITERATIONS ***

------------------------------------------------------------------------
 total energy gain   :        -0.0030793 Eh       -1.9323 kcal/mol
 total RMSD          :         0.0497987 a0        0.0264 Å
 total power (kW/mol):        -1.6169347 (step)-2579.6561 (real)
------------------------------------------------------------------------

 ANCopt (total)                0 d,  0 h,  0 min,  0.003 sec
 optimizer setup                ...        0 min,  0.000 sec (  1.056%)
 model hessian                  ...        0 min,  0.000 sec (  0.889%)
 ANC generation                 ...        0 min,  0.000 sec (  0.608%)
 coordinate transformation      ...        0 min,  0.000 sec (  0.129%)
 single point calculation       ...        0 min,  0.003 sec ( 85.663%)
 optimization log               ...        0 min,  0.000 sec (  7.324%)
 hessian update                 ...        0 min,  0.000 sec (  0.167%)
 rational function              ...        0 min,  0.000 sec (  2.006%)

================
 final structure:
================
5
 xtb: 6.7.1 (6d44803)
F           -0.79377277376452       -0.45638884944185       -0.94255230501200
C            0.00000000453768        0.00000000687223       -0.00000018374723
F           -0.24502366780556        1.27552848145315        0.19940126030304
F           -0.21296090475130       -0.66608689677336        1.11254029129789
F            1.25175734178371       -0.15305274211017       -0.36939006284169

 Bond Distances (Angstroems)
 ---------------------------
F1-C2=1.3141         C2-F1=1.3141         C2-F3=1.3141         C2-F4=1.3141         C2-F5=1.3141         F3-C2=1.3141         
F4-C2=1.3141         F5-C2=1.3141         
 F  C  Rav=1.3141 sigma=0.0000  Rmin=1.3141  Rmax=1.3141     4

 selected bond angles (degree)
 --------------------
F3-C2-F1=109.47                F4-C2-F1=109.47                F4-C2-F3=109.47                F5-C2-F1=109.47                
F5-C2-F3=109.47                F5-C2-F4=109.47                

 selected dihedral angles (degree)
 ---------------------------------

           -------------------------------------------------
          |                Final Singlepoint                |
           -------------------------------------------------

          ...................................................
          :                      SETUP                      :
          :.................................................:
          :  # basis functions                  20          :
          :  # atomic orbitals                  20          :
          :  # shells                           10          :
          :  # electrons                        32          :
          :  max. iterations                   250          :
          :  Hamiltonian                  GFN2-xTB          :
          :  restarted?                      false          :
          :  GBSA solvation                  false          :
          :  PC potential                    false          :
          :  electronic temp.          300.0000000     K    :
          :  accuracy                    1.0000000          :
          :  -> integral cutoff          0.2500000E+02      :
          :  -> integral neglect         0.1000000E-07      :
          :  -> SCF convergence          0.1000000E-05 Eh   :
          :  -> wf. convergence          0.1000000E-03 e    :
          :  Broyden damping             0.4000000          :
          :  net charge                          0          :
          :  unpaired electrons                  0          :
          ...................................................

 iter      E             dE          RMSdq      gap      omega  full diag
   1    -21.1317840 -0.211318E+02  0.204E-05   18.02       0.0  T
   2    -21.1317840 -0.390799E-13  0.112E-05   18.02    4005.2  T
   3    -21.1317840 -0.355271E-14  0.808E-07   18.02   55327.5  T

   *** convergence criteria satisfied after 3 iterations ***

         #    Occupation            Energy/Eh            Energy/eV
      -------------------------------------------------------------
         1        2.0000           -0.9451125             -25.7178
       ...           ...                  ...                  ...
        10        2.0000           -0.6068819             -16.5141
        11        2.0000           -0.5904153             -16.0660
        12        2.0000           -0.5904153             -16.0660
        13        2.0000           -0.5904153             -16.0660
        14        2.0000           -0.5901394             -16.0585
        15        2.0000           -0.5901394             -16.0585
        16        2.0000           -0.5901394             -16.0585 (HOMO)
        17                          0.0719988               1.9592 (LUMO)
        18                          0.0942619               2.5650
        19                          0.0942620               2.5650
        20                          0.0942620               2.5650
      -------------------------------------------------------------
                  HL-Gap            0.6621382 Eh           18.0177 eV
             Fermi-level           -0.2590703 Eh           -7.0497 eV

 SCC (total)                   0 d,  0 h,  0 min,  0.001 sec
 SCC setup                      ...        0 min,  0.000 sec (  2.525%)
 Dispersion                     ...        0 min,  0.000 sec (  0.561%)
 classical contributions        ...        0 min,  0.000 sec (  0.000%)
 integral evaluation            ...        0 min,  0.000 sec ( 20.383%)
 iterations                     ...        0 min,  0.000 sec ( 22.534%)
 molecular gradient             ...        0 min,  0.000 sec ( 49.790%)
 printout                       ...        0 min,  0.000 sec (  2.992%)

         :::::::::::::::::::::::::::::::::::::::::::::::::::::
         ::                     SUMMARY                     ::
         :::::::::::::::::::::::::::::::::::::::::::::::::::::
         :: total energy             -21.078563977908 Eh    ::
         :: gradient norm              0.000053905832 Eh/a0 ::
         :: HOMO-LUMO gap             18.017698096156 eV    ::
         ::.................................................::
         :: SCC energy               -21.131783947797 Eh    ::
         :: -> isotropic ES            0.056976264654 Eh    ::
         :: -> anisotropic ES          0.006516315270 Eh    ::
         :: -> anisotropic XC         -0.030325395771 Eh    ::
         :: -> dispersion             -0.001534583094 Eh    ::
         :: repulsion energy           0.053219969889 Eh    ::
         :: add. restraining           0.000000000000 Eh    ::
         :: total charge               0.000000000000 e     ::
         :::::::::::::::::::::::::::::::::::::::::::::::::::::

           -------------------------------------------------
          |                Property Printout                |
           -------------------------------------------------

    * Orbital Energies and Occupations

         #    Occupation            Energy/Eh            Energy/eV
      -------------------------------------------------------------
         1        2.0000           -0.9451125             -25.7178
       ...           ...                  ...                  ...
         4        2.0000           -0.9311922             -25.3390
         5        2.0000           -0.7226713             -19.6649
         6        2.0000           -0.6889415             -18.7471
         7        2.0000           -0.6889415             -18.7471
         8        2.0000           -0.6889415             -18.7471
         9        2.0000           -0.6068819             -16.5141
        10        2.0000           -0.6068819             -16.5141
        11        2.0000           -0.5904153             -16.0660
        12        2.0000           -0.5904153             -16.0660
        13        2.0000           -0.5904153             -16.0660
        14        2.0000           -0.5901394             -16.0585
        15        2.0000           -0.5901394             -16.0585
        16        2.0000           -0.5901394             -16.0585 (HOMO)
        17                          0.0719988               1.9592 (LUMO)
        18                          0.0942619               2.5650
        19                          0.0942620               2.5650
        20                          0.0942620               2.5650
      -------------------------------------------------------------
                  HL-Gap            0.6621382 Eh           18.0177 eV
             Fermi-level           -0.2590703 Eh           -7.0497 eV

     #   Z          covCN         q      C6AA      α(0)
     1   9          0.794    -0.164    10.868     3.894
     2   6          3.138     0.656    16.540     6.656
     3   9          0.794    -0.164    10.868     3.894
     4   9          0.794    -0.164    10.868     3.894
     5   9          0.794    -0.164    10.868     3.894

 Mol. C6AA /au·bohr⁶  :        293.697144
 Mol. C8AA /au·bohr⁸  :       5751.099757
 Mol. α(0) /au        :         22.233375


Wiberg/Mayer (AO) data.
largest (>0.10) Wiberg bond orders for each atom

 ---------------------------------------------------------------------------
     #   Z sym  total        # sym  WBO       # sym  WBO       # sym  WBO
 ---------------------------------------------------------------------------
     1   9      1.118 --     2      0.970
     2   6      3.881 --     4      0.970     3      0.970     5      0.970
                             1      0.970
     3   9      1.118 --     2      0.970
     4   9      1.118 --     2      0.970
     5   9      1.118 --     2      0.970
 ---------------------------------------------------------------------------

Topologies differ in total number of bonds
Writing topology from bond orders to xtbtopo.mol

molecular dipole:
                 x           y           z       tot (Debye)
 q only:        0.000       0.000       0.000
   full:        0.000       0.000       0.000       0.000
molecular quadrupole (traceless):
                xx          xy          yy          xz          yz          zz
 q only:       -0.000       0.000       0.000      -0.000      -0.000      -0.000
  q+dip:       -0.000       0.000       0.000      -0.000      -0.000      -0.000
   full:       -0.000       0.000       0.000      -0.000      -0.000      -0.000

           -------------------------------------------------
          |                Geometry Summary                 |
           -------------------------------------------------

      molecular mass/u    :       88.0043485
   center of mass at/Å    :       -0.0000000      -0.0000000      -0.0000002
  moments of inertia/u·Å² :        0.8748237E+02   0.8748237E+02   0.8748237E+02
rotational constants/cm⁻¹ :        0.1926975E+00   0.1926975E+00   0.1926975E+00

 * 4 selected distances

     #   Z          #   Z                                           value/Å
     1   9          2   6                                         1.3140665 (max)
     2   6          3   9                                         1.3140665
     2   6          4   9                                         1.3140665 (min)
     2   6          5   9                                         1.3140665

 * 1 distinct bonds (by element types)

   Z      Z             #   av. dist./Å        max./Å        min./Å
   6 C    9 F           4     1.3140665     1.3140665     1.3140665


optimized geometry written to: xtbopt.xyz


           -------------------------------------------------
          | TOTAL ENERGY              -21.078563977908 Eh   |
          | GRADIENT NORM               0.000053905832 Eh/α |
          | HOMO-LUMO GAP              18.017698096156 eV   |
           -------------------------------------------------

------------------------------------------------------------------------
 * finished run on 2026/04/08 at 14:24:17.765     
------------------------------------------------------------------------
 total:
 * wall-time:     0 d,  0 h,  0 min,  0.007 sec
 *  cpu-time:     0 d,  0 h,  0 min,  0.007 sec
 * ratio c/w:     0.910 speedup
 SCF:
 * wall-time:     0 d,  0 h,  0 min,  0.001 sec
 *  cpu-time:     0 d,  0 h,  0 min,  0.001 sec
 * ratio c/w:     1.000 speedup
 ANC optimizer:
 * wall-time:     0 d,  0 h,  0 min,  0.004 sec
 *  cpu-time:     0 d,  0 h,  0 min,  0.004 sec
 * ratio c/w:     0.968 speedup

